Cr Fe Mo Nb Ni Ti 
 1.0000000000000000
    14.4324500656286094    0.0000000000000000    0.0000000000000000
     0.0000000000000000   14.4324500656286094    0.0000000000000000
     0.0000000000000000    0.0000000000000000   14.4324500656286094
 Cr  Fe  Mo  Nb  Ni  Ti 
  56  13  26   8 145   5
Direct
  0.2340499631159093  0.7351584941213023  0.2371685612212720
  0.4858179385125917  0.6122797952818115  0.3578597611818434
  0.3593042621594882  0.8672617190575281  0.9923124866739457
  0.2324306791189059  0.9936415793714627  0.7439965687281318
  0.2342392545264030  0.9858138869111907  0.9892449162461082
  0.1093061948268866  0.3550613806457404  0.7435226352438808
  0.9836473708112389  0.3587139429972209  0.8645851537552213
  0.6050589886150961  0.4764024340237095  0.8680522581872147
  0.1107284709950014  0.9927029340009149  0.8640881642216957
  0.1043597707700404  0.6087601042807129  0.2358678534218265
  0.3591791193546194  0.4800208221613073  0.3572131294919216
  0.4840959852541851  0.6104308665409225  0.1175540756129658
  0.6239081932116142  0.9849510676480802  0.3549568969955003
  0.6141063309685306  0.2347760865202693  0.8659116545773534
  0.8601398050083329  0.2332235712551036  0.6130629722401819
  0.2326168044184233  0.2339282642687371  0.7435009524424084
  0.1024750091481650  0.6110454077075681  0.9948195033482731
  0.7350653232426296  0.8608561360000808  0.3664955838206607
  0.7359942736226637  0.1112652951972713  0.3637213452701222
  0.6152074701756249  0.4815123982001552  0.6163566590813659
  0.7495182272480281  0.9745139208470655  0.2301340943914482
  0.3581523354229215  0.2372540913890510  0.1216250191385832
  0.4941507922274943  0.4820572606399506  0.7306111278594917
  0.1102986456893086  0.8639312864351456  0.9874362276882593
  0.3656111220981726  0.4846758273046776  0.8680976763106638
  0.8534995624745169  0.8509774423936950  0.2350640063002471
  0.1099820614388967  0.2354051606894505  0.8636534193727972
  0.7331156242346326  0.9872617461284656  0.4864310873560294
  0.8591346513485613  0.6184387526761371  0.4852622006320929
  0.9891366971284895  0.4837413923372259  0.2337286409896038
  0.8637299706951064  0.7335273963212630  0.3660831734725569
  0.9913914362220915  0.6104822853529943  0.3679990538978342
  0.9747114154705484  0.8630493298167271  0.8769354126995549
  0.4943808259980543  0.3594767805068138  0.8660300203702253
  0.7381479083381817  0.2375270368477196  0.9859447773970672
  0.2375899522189731  0.2407186093532424  0.2385671694615219
  0.4861722760410232  0.2373672347024021  0.4883267083074276
  0.4856051664894095  0.4867282304789973  0.2400917666090012
  0.3605867275200305  0.3612344946982446  0.2405368614259090
  0.6088615388359069  0.8592086035268948  0.7418805261676451
  0.4899120010599737  0.1128032250484747  0.8616385960135825
  0.7375972700759797  0.4894961776395677  0.2345458535680370
  0.6119017696557666  0.3669915322780796  0.9929758226947928
  0.4868726350966504  0.9875173450117873  0.2394282590686284
  0.7346739071997709  0.3590904434702575  0.8649949176134496
  0.1093492385387647  0.3608049046547855  0.9846682159031687
  0.3670796642972176  0.5916294746623844  0.7473448383784628
  0.8644039135348793  0.4862826039445695  0.1189502595874604
  0.7331841660003459  0.7458701739323627  0.2369480673277641
  0.2301033646344362  0.4848361262537145  0.2393005039893660
  0.2307732746523606  0.2393281493633961  0.9862518909068512
  0.9860312883929825  0.7377638641991217  0.2301004652964389
  0.9818085645102045  0.9915829672732307  0.7445419405520074
  0.3619004267320632  0.9894718547954062  0.8683699677649686
  0.8667861919922727  0.6262407000789908  0.2368783688722343
  0.9866047681770134  0.9886158305926569  0.9835371602464906
  0.8595688929526681  0.7418883848151731  0.8688658893062371
  0.9867535541248648  0.3630694311492239  0.3608041084263909
  0.8664262398718395  0.9869602437979096  0.8700514462928133
  0.8568927136400977  0.1127753746649016  0.4875499005958375
  0.7375238448470239  0.7439370846869828  0.7413392643145763
  0.1106032911274568  0.9867546192198012  0.3596042734521759
  0.1139096723642145  0.6080842324873357  0.4901898895101302
  0.4867603525462574  0.3559117762443405  0.6138109391937542
  0.2356739222261037  0.4850122185260805  0.4873336749492603
  0.1093854976586811  0.3619957836173708  0.2407422140137368
  0.3597117397762591  0.9849524463272372  0.1141992776764035
  0.1082978226628721  0.1133898898081965  0.7399229831080157
  0.6106856487225411  0.7408895983461816  0.3599993624021933
  0.6106564031498842  0.2345684043409201  0.6135499584906319
  0.3615322685948478  0.6084088129306235  0.4801849094384604
  0.6226563769993497  0.1005082639808481  0.9906293690565602
  0.3603287036251140  0.1135470369754287  0.9938506984664014
  0.3626534115297617  0.3631437655693660  0.7394664268146827
  0.4851751649141152  0.7375015276794800  0.2368263377052123
  0.1115905932692507  0.4843834768082263  0.6155155573357265
  0.6101799229584672  0.7423581089294080  0.6196908120714726
  0.1070159623018640  0.8662688488608143  0.7455169412547838
  0.8584216406942440  0.2344714462224533  0.1135256637180929
  0.4909233730569850  0.6140643277715657  0.8678377227033237
  0.7385487283287488  0.6144348477642818  0.1155782564466235
  0.6099999451037125  0.6139871207458338  0.4838726509220612
  0.1140550634090612  0.7344953112329904  0.6126629282975721
  0.3615256657634087  0.3581406509766639  0.9925134409468613
  0.8581279599712071  0.7387710227927129  0.6166370230152652
  0.2328591322414850  0.6113438326769783  0.1117348432041480
  0.1080339724213537  0.7383129862834233  0.3631802735002364
  0.6148938194109866  0.2364500960544128  0.1131473463912133
  0.4901376725783103  0.4771856864128652  0.4913529246718734
  0.8639862126389938  0.4955866986862947  0.3592839294142584
  0.3593825600747685  0.8703915227225012  0.7471669906433002
  0.9824013907381931  0.2353509600483084  0.4887030098342159
  0.1090804046893475  0.2371812339086761  0.1145589664333528
  0.2322823990048697  0.9869934005360163  0.2380444146741067
  0.9852019428810239  0.6118107351596554  0.8659238995444947
  0.4870164946783804  0.9883489248572741  0.4879847382619212
  0.8176137284409919  0.9274550188582479  0.0487556066433091
  0.3610544103958985  0.7403875545499299  0.6163360802020700
  0.7408954608363567  0.9869978592752732  0.7400867867144021
  0.2339827442775994  0.2372347245990631  0.4897134882780300
  0.6196676328192456  0.8663424072236373  0.9958163365003800
  0.8611268935280521  0.4839140052251337  0.6138913521737885
  0.9761851153453823  0.9840868619911387  0.2318902583513495
  0.2336708856236962  0.4843840151799342  0.9882800313133413
  0.3621459567714111  0.2371963797495911  0.3611584672079240
  0.1084715545581656  0.6116612033016511  0.7395908474152587
  0.6140864764110538  0.3577221816154415  0.4882519855327239
  0.6147982040715078  0.7402963516659061  0.8669347466840167
  0.1094722450929563  0.2359724293354445  0.3600518333269221
  0.4854316044357554  0.7393247013197831  0.9927951956382877
  0.8631887014054225  0.1154716480481327  0.7393894735708365
  0.4863942484069923  0.8659949271900684  0.6167276987306424
  0.8601219340225498  0.4840977181127138  0.8651519572644635
  0.1080701725248980  0.3624719262791137  0.4877076239357127
  0.7343401430750295  0.6128546879779329  0.6167629580873087
  0.8629750143113539  0.6105603428461349  0.9903571570582120
  0.9876774503482978  0.4855917556245837  0.4889807953173865
  0.2350367475374402  0.1116642681620532  0.6172174909075131
  0.9834018632556810  0.1108397681244977  0.1096423714053905
  0.6127158039568910  0.1130728591399472  0.4862877215674500
  0.7348105870052921  0.6180246976117604  0.3587693396056386
  0.6114703716511573  0.6113732237495194  0.2395084339369695
  0.7405391424826119  0.7415587663632328  0.9926078044963508
  0.1102112765333751  0.1118707452928147  0.9880544416531996
  0.1074629774696709  0.7396915660396075  0.8692877509478195
  0.8581060733836259  0.1068388140686047  0.9891318446678562
  0.3605143435716431  0.3597938631388806  0.4880545671081639
  0.8630501159279221  0.2349226399387174  0.3623416809825553
  0.4890476125810637  0.9884209877964281  0.7408907162445877
  0.9840405675530850  0.2376940975223377  0.7402080575367478
  0.7362469939844194  0.7383526908315471  0.4874969806848464
  0.3605942058473995  0.4854275655668672  0.1172108580503568
  0.1112288609658345  0.4857339920682400  0.3640026878029743
  0.2379134995244815  0.6083010939939517  0.6186869947936607
  0.8620762130217475  0.3609324818182121  0.2379965224599334
  0.7448115788996751  0.8649485738808064  0.8709205442066228
  0.3626208189842169  0.6109797535492910  0.9917578759612967
  0.3600460139150424  0.1120952142481311  0.2385134943024803
  0.4846382997318260  0.1126773462058873  0.6163983615410313
  0.1093100124785308  0.4833105860476015  0.8660307473281531
  0.8613970224862130  0.3603510258573693  0.4870163719722282
  0.6140900460355347  0.1109602090439019  0.2399588881265594
  0.6089115302539219  0.2333642460041657  0.3634287553472426
  0.6145373929439316  0.3585917186266306  0.7396161198866511
  0.4841856508237994  0.8666244060367703  0.1164977894476527
  0.9864821256955258  0.4850031136933816  0.7425680636215457
  0.3629479091461610  0.2333742279055074  0.6148921871872670
  0.6114913069275972  0.8607343992796924  0.4874900818145673
  0.7379389333538817  0.4847440708842278  0.9905227913874646
  0.4849280871462723  0.8635719240512049  0.3612576168137962
  0.7372331025432435  0.8652649371728657  0.6098628035783196
  0.2326160993619870  0.8662677515140628  0.6146675462815107
  0.1096265089841009  0.1110098569469580  0.4870139608400453
  0.2320561959697473  0.4846810551372671  0.7424936037274662
  0.8630790629533759  0.7440337636536200  0.1054292363321739
  0.8662305554680816  0.8628941978582275  0.7412012588572370
  0.6123341128162896  0.9889973739095752  0.6147734747308010
  0.8559995729909576  0.9866873773105694  0.3652329834353311
  0.2338026751405460  0.8621011602643395  0.1146673092946686
  0.9847621583127407  0.7375753558076948  0.9902940340638891
  0.3572177326131887  0.7378933776047567  0.3600094496699449
  0.7366213783085140  0.3576159088090763  0.6122613313972400
  0.2326549877674136  0.3617308026791005  0.3623121358641779
  0.8591182139644392  0.1126035186486773  0.2429958398906875
  0.2324980487909385  0.6089193573034043  0.3607639947914435
  0.9827532242705482  0.8599917345544400  0.3633609333969963
  0.8602609058538941  0.2374606618863911  0.8660687639589620
  0.2355721010439063  0.1128875322438789  0.3606315309841687
  0.9831104335332560  0.2368417299727246  0.9874257580210242
  0.3593474940970589  0.7390052457484291  0.1126024086807637
  0.8640810184929120  0.9891885011231801  0.6115862182346306
  0.1087356587329294  0.1121977184408506  0.2396553566227285
  0.3584788104369209  0.8635721493864916  0.2394620519272600
  0.4865092397047516  0.7407236541903565  0.4845917731012307
  0.8597571875522012  0.6130903453834188  0.7410725892695645
  0.3617315483627001  0.2349529993240735  0.8636596477499935
  0.3607102987482730  0.1120768664173449  0.7410239039168566
  0.9848412843498213  0.3604079025285016  0.1121809273884649
  0.1087291881698125  0.7408665938649647  0.1118352523751771
  0.4870377485817253  0.1086409427837345  0.1173623390712705
  0.1095844167336523  0.8609994216686138  0.2359236175761529
  0.7335364524099454  0.4842479094060927  0.7423140241983627
  0.6098312128889863  0.4874767777493755  0.1163666227507577
  0.7339433659356805  0.4879357331661592  0.4867344737281393
  0.6114642826726366  0.6115649622873484  0.9933726102074256
  0.3615471647248150  0.7386797554957288  0.8681175636650019
  0.9861653090098148  0.1112354943103492  0.3628857446170088
  0.2341210303169919  0.3648691948516313  0.1168981757682546
  0.1102509608810039  0.2345170572545914  0.6179674474598535
  0.3603687475116992  0.9885718984707090  0.3595416008469658
  0.7382741648028681  0.1114774297547064  0.6109994099551841
  0.4878577000407456  0.8640353781785778  0.8687770754889264
  0.6120968697158042  0.4862363212823780  0.3577925623700602
  0.3584584386203403  0.8616440336599118  0.4851568841454840
  0.7456076088989451  0.1004596419517378  0.1167968517835552
  0.9859258372937716  0.6125918674825059  0.6131584276896488
  0.4864035387290639  0.2367977857076754  0.2366032422857431
  0.3572579229540641  0.6103491923474783  0.2397661587484232
  0.4880254484646744  0.2368792675574322  0.7428890680362173
  0.6142637755748472  0.6104944454999890  0.7387352313047523
  0.6121237517714692  0.3627204863101166  0.2381944157264766
  0.4854910125598614  0.9871183773942880  0.9922807186496968
  0.2342156244394302  0.7355855287239373  0.4874322310194948
  0.2357053419223379  0.8626561934991820  0.3635191863114519
  0.7387257555502073  0.2343647959976904  0.4891277312603653
  0.9838662384875623  0.4832169131763965  0.9886917002097274
  0.7411370291229883  0.1129820918036397  0.8637720244353833
  0.8598882610803991  0.3589199175224433  0.7407718005440040
  0.6102766562853578  0.9863486359935211  0.8621905722145506
  0.4860472541998601  0.7369893832525026  0.7449663763564812
  0.4887368818733935  0.3584521554161266  0.3610812240994630
  0.9878134864443098  0.3574053900510892  0.6159986627398003
  0.4909658863026388  0.2348007320447338  0.9904708535651917
  0.1078081737038296  0.4815829663123956  0.1107799321677907
  0.2351605278700998  0.7363733774401037  0.7435346194462726
  0.7376161681460371  0.2365479745428115  0.7406375487755914
  0.1103707165074673  0.9870659176256270  0.1097515304195235
  0.2346906456582091  0.8608557905798095  0.8686094600119497
  0.4858211944658489  0.1124172852578170  0.3591063423281547
  0.6091272213698747  0.7355373928721866  0.1151311572586875
  0.1101135097538736  0.8633546793495342  0.4895385117388715
  0.6109692022156158  0.8627678080675616  0.2360206223835411
  0.7364789218950426  0.2343366298180730  0.2381828505385616
  0.4856618535891855  0.3608061515865621  0.1166411444874152
  0.9866046557874691  0.1121370809317049  0.6159716681882690
  0.3619070059884371  0.1137745043402164  0.4864474115494044
  0.2352720584770557  0.3606350144676235  0.6160797901547763
  0.9840984878001263  0.1139060197305515  0.8654842578608160
  0.9857192975642758  0.8634786011091240  0.6147737346177443
  0.2325269841358117  0.1119087236964446  0.1158468470011852
  0.8602276130029216  0.8622725889647570  0.4879135325893852
  0.3581888090287992  0.4847415605637003  0.6120659597040685
  0.8596665713983919  0.3630639323098214  0.9893797758545025
  0.2347077372816225  0.7401011806807591  0.9892171890869776
  0.6121247686820418  0.1140749681786336  0.7399010134041789
  0.9838506702656686  0.8654164418332481  0.1051076738250289
  0.9832187468236603  0.2381793598160521  0.2391802629907170
  0.2347382995585994  0.3627517003027686  0.8648105416657886
  0.9846719524582489  0.7352437070706088  0.7411067300004923
  0.2342542973735093  0.1127518610330712  0.8653035874449624
  0.4865912071993365  0.4872678055317315  0.9943987274578573
  0.7386319018472205  0.3643272015941891  0.1171539704381925
  0.3585367623582393  0.9898243676328566  0.6171634839773230
  0.9861273508620498  0.6113163435692250  0.1137256529950675
  0.6170289132940775  0.9854646974193677  0.1207182723745860
  0.9856715406659831  0.7376567161585302  0.4917114369377331
  0.4864693088066560  0.6102584742764209  0.6181383641008097
  0.1096170680095789  0.9918146628465121  0.6185148450490112
  0.7372778185067701  0.6115830080313209  0.8672833555322023
  0.2361976404233815  0.9879279608535005  0.4887707043184700
  0.9862495351343029  0.9876190487843880  0.4875262526661227
  0.7341597238537068  0.3532428288998515  0.3636541327895181
  0.2318639153834455  0.6147120847203129  0.8679979466547617
