Cr Fe Mo Nb Ni Ti 
 1.0000000000000000
    14.4324500656286094    0.0000000000000000    0.0000000000000000
     0.0000000000000000   14.4324500656286094    0.0000000000000000
     0.0000000000000000    0.0000000000000000   14.4324500656286094
 Cr  Fe  Mo  Nb  Ni  Ti 
  56  13  26   8 145   5
Direct
  0.8646362208837040  0.3598003030439621  0.4875272318760402
  0.7335062826893602  0.2371404455962945  0.9830934179617531
  0.8594802899054950  0.3676605848802825  0.9882370866740243
  0.9833626211045172  0.2385627258497335  0.2378601172303105
  0.8650160875690673  0.4829459846460554  0.8668747335212706
  0.9809382694103458  0.8687606209391994  0.8658293504251965
  0.7456589646053553  0.7363435695285555  0.0065844960614469
  0.6078036116544729  0.2338455888317541  0.6098696407461889
  0.9928040356188607  0.1161048712208591  0.8620897614669407
  0.7308318129252356  0.8556104350018090  0.3689678901060987
  0.1116592328850907  0.7353426055443805  0.3651666277938554
  0.6171522486950497  0.7402816092808983  0.1104609307020387
  0.1134177016630797  0.3629105839645975  0.4879742271423370
  0.3635366315455120  0.3636903935665811  0.9927818745925051
  0.8650323296643756  0.7276997796151515  0.1314957385717785
  0.4883071464440619  0.9908014977510247  0.7400499256844666
  0.7370677015469500  0.9904002034089935  0.7398640323856119
  0.6105619182545655  0.3546567998136620  0.4870886957484385
  0.7375900947446363  0.8666914321953314  0.6179618085457526
  0.6110455239044159  0.1144501704554754  0.9866110512430400
  0.1148442471616457  0.3652038423831304  0.9934130933525814
  0.9828474642469313  0.2429742558441502  0.9810571096696529
  0.2368512266609602  0.1220995562220243  0.6183960205510326
  0.7345355525224140  0.3628991680411296  0.1109939815186344
  0.4876635974475661  0.4842819453700788  0.9962367774043854
  0.9855027477227433  0.4852976107837763  0.4893386928636708
  0.7387657327464243  0.4869032064090754  0.2391422038759472
  0.2340175000794437  0.6088167761240046  0.3643466598017628
  0.6128430802066326  0.3612879952094049  0.9911390313730497
  0.0922742945326447  0.9854070036494864  0.8756974465313557
  0.3630048399588720  0.3646002466114039  0.7381251395287436
  0.9882263484335039  0.6065584948617614  0.6102596157172991
  0.9850537277808162  0.2398207071119559  0.4922982105448159
  0.1033019639230518  0.8596615253277992  0.0008252953490288
  0.3598782234162682  0.4862622860524439  0.6216409044874577
  0.3633756648916049  0.2328450217900379  0.3715849960594363
  0.7368302840929301  0.1227203242449746  0.8588640109594786
  0.1044121539533905  0.1163187061661459  0.7377701712207549
  0.6131966036796151  0.7394378826960061  0.3634511588651405
  0.3589628781694505  0.4929002224140853  0.3560150084266644
  0.4905658651173778  0.2416280510437318  0.9889219300008799
  0.2344960571182020  0.1123893137445003  0.1093196013145585
  0.4844425557818385  0.1211135172980039  0.6183186457456459
  0.4903155459246492  0.2345744671964922  0.4893757572252080
  0.1158036296513786  0.4849797738978248  0.1136047369055572
  0.2383114017179562  0.2396216411342296  0.9913054146008056
  0.4867932426167871  0.3647183783401114  0.1136369993929724
  0.3620627807621070  0.7386986811332533  0.1148571460360618
  0.4885803794348660  0.1152763758172105  0.8677220885671032
  0.7388248344471386  0.6094630831602982  0.1184321252222268
  0.7429179262181496  0.3642623317662332  0.8760002280330478
  0.2339968293253576  0.4873806617704861  0.2383332380182480
  0.8568938834023906  0.9881322495962717  0.6220402284171651
  0.6138277953348730  0.4913030879940454  0.1192070096895568
  0.1098066620249371  0.8560870740662608  0.2437825474901483
  0.6133973241654811  0.3580283700265132  0.2333407354162862
  0.9858967274601314  0.2363321049158863  0.7402067036674695
  0.3632924138066120  0.6136481585590955  0.2369157139213979
  0.3639794244663897  0.1089843034989717  0.2389663058716950
  0.1082100834880844  0.3637399093027234  0.2384182971520221
  0.9910897467265425  0.7310363296621954  0.2468837338643968
  0.3622078786112964  0.2378812288513555  0.6170171956252707
  0.1103671219130741  0.6118667061361398  0.4882107682432649
  0.2344348615608980  0.2375569876144335  0.4904701803831912
  0.4856136256998703  0.6171905761204139  0.3609092067687227
  0.8636609217894120  0.2422325873343029  0.8607215239063126
  0.3651170059033451  0.8594365540052232  0.9945501217455452
  0.7364606527147296  0.7402507625965916  0.7378037508452105
  0.8617755724950548  0.4814409995854680  0.3666057549864368
  0.8615470958106135  0.3623815361077537  0.7390589207279646
  0.9341128758489882  0.9657556468200396  0.0097460760471264
  0.9885091747780947  0.4847750585297723  0.2402760792630908
  0.7362518335996261  0.4853520847157192  0.4902149447377352
  0.4908247659236128  0.9858258535939496  0.2370646949725797
  0.6090038769303362  0.4862623436901796  0.3556031208605218
  0.9621163474603650  0.7559101061505169  0.9937460076798156
  0.3597465528549545  0.3606453496840790  0.4888786386400794
  0.4861369483661402  0.6100847650154091  0.8690320371719553
  0.4897880171330465  0.4906927065428963  0.4918803495562201
  0.2344032923958226  0.8597479624706006  0.8685474141872526
  0.1108155065243676  0.7351056520449077  0.6149171227473852
  0.3603872964134013  0.7348155726594792  0.3601661636345590
  0.4866924581804526  0.2338585843560212  0.2363427588658627
  0.8644998963347438  0.7330600232923938  0.3669073468722976
  0.8612631524373383  0.7372704794149749  0.6181419038075491
  0.2339157001466647  0.9848634279452064  0.9949868482534246
  0.2373007314586707  0.9927319562705529  0.2340471925790636
  0.9894909859990929  0.6077727368748076  0.8657382121643812
  0.7372677551619984  0.1132361433059210  0.6133076563784289
  0.9812046930490950  0.1202539721055191  0.1065474396658436
  0.6141112255777365  0.7394139121604569  0.6212881224185561
  0.4874159631560066  0.8648631292411615  0.8695747207953476
  0.2327037052791789  0.9895927501836187  0.7412503786419266
  0.7830260402059992  0.8737043524827977  0.0948897161421483
  0.2347605878945743  0.1179892421313180  0.8660401636896469
  0.7468844768517447  0.1118120074281674  0.3589821933707803
  0.1130909173305879  0.3634739581574868  0.7405975836629920
  0.2381482092580752  0.2379969007081667  0.2395101582168685
  0.9497830144245513  0.0009895486939930  0.2338633936541010
  0.3607950919380424  0.7368076606815397  0.6171293788342068
  0.7660590275062130  0.1007300810212281  0.1274997679126534
  0.4872365793618676  0.9851916298528097  0.4886601160715389
  0.7526723511830741  0.8620439055583297  0.8770415978872808
  0.9871149460033791  0.7371378912139362  0.4893391645468507
  0.6146296007211836  0.1108880557008950  0.4862015655285082
  0.1079037930403558  0.7368027383508224  0.1174999645188931
  0.4875827603858169  0.3602082928795295  0.6167592017575071
  0.1054673778075583  0.1128049051211703  0.2391611065590955
  0.3614636824428335  0.6130520761254593  0.7433142692718274
  0.3622348002929430  0.4855080237447895  0.8668546534447524
  0.9884528072283568  0.8599634988419310  0.3649544452955067
  0.7392116579525747  0.2402754895727849  0.4882678961779016
  0.6170041338461331  0.2321029310082040  0.1123181473221144
  0.4850551554905052  0.3649797657987332  0.8687828238652142
  0.8646291925615033  0.1190937629768355  0.7386901257838067
  0.6214369913855509  0.9879107639015668  0.1115625633872486
  0.6130495750962026  0.8597143397884384  0.4911374596639752
  0.6139107297897866  0.9914792171886088  0.8651413149115863
  0.4883561659010198  0.7379218480384609  0.7457424690680179
  0.1079209756727830  0.1161301124756534  0.9916984684394943
  0.3601705863391885  0.8613489706559084  0.4886848189439329
  0.7426773471700954  0.0031200879825581  0.9815768343885005
  0.4877983059462319  0.6118971585725120  0.6172276049352062
  0.7356366215375325  0.3594083429290676  0.6135654550124057
  0.2390885550906623  0.3636922756018018  0.1140678250366157
  0.4893093858417633  0.1115397228763677  0.1110336292528322
  0.2387406296356824  0.4881185239121141  0.9925180732750223
  0.9874070832364021  0.3664956238935438  0.8676883074537002
  0.1110040303054101  0.2413744359689357  0.8679570126806163
  0.2371238837653745  0.3620886742764163  0.6138732076953032
  0.3640067008188304  0.2345656359876375  0.1105096968350982
  0.8619585051229630  0.6071231004790190  0.2454912035579553
  0.1080116567760145  0.6173370921307229  0.9952817262363557
  0.9885968401186915  0.6075993199204393  0.3680798586207600
  0.8625072408560069  0.6085322542263520  0.7382296913212150
  0.6105993977405212  0.6118606025743509  0.7416971182723812
  0.1115543029893823  0.2411255509533590  0.1119175554007277
  0.9872098442750652  0.7354764985517485  0.7409212656434246
  0.3649664351424775  0.2404458067234737  0.8659092274266835
  0.1142698886125816  0.4875596431795778  0.8715946666093597
  0.4875364863681002  0.8593935191850230  0.3615720795843279
  0.3628819583540799  0.3651137383833290  0.2391988302482762
  0.7406008702562040  0.2394908921698468  0.2356029677599764
  0.1119973481252832  0.6114576836766699  0.7401427998377558
  0.7384588852039120  0.3578971128619349  0.3609566869694588
  0.1117118602013220  0.1147361928821626  0.4892572605809640
  0.6156043711024111  0.9853377947146380  0.3612060637874218
  0.7362825825377071  0.7351012114407092  0.4918449067526131
  0.4884057917206952  0.1112687923398439  0.3641955392760589
  0.1053478652961115  0.7408874813939690  0.8692694490173695
  0.8630907900068332  0.4854662992744856  0.6139083952381847
  0.3592315724171630  0.4886102254762030  0.1160491042479838
  0.3628907921255213  0.6131728375508523  0.9957682063922642
  0.3610713940502607  0.9890492977780516  0.6180223352181244
  0.8568744987051025  0.9780494715686140  0.3747091910045531
  0.8621189092954618  0.3621852273284456  0.2379182939482464
  0.7339808857882553  0.4898533786431113  0.9933908324685482
  0.3608764253592374  0.9885791663204601  0.3623010280728929
  0.8649175633301484  0.1120940950647097  0.4899735042903676
  0.3619054322174913  0.8624998136564036  0.2375788298197088
  0.1048873344650495  0.8628312811608079  0.7414347230312890
  0.2332993741559350  0.7362974048155611  0.7426321628845526
  0.8614603382288752  0.7278330580021323  0.8571762249906970
  0.2340784977302870  0.3651944685271267  0.3637743609551927
  0.6093741233586121  0.1141957168819007  0.7412200466255443
  0.9824824829463029  0.8570638237482749  0.1341081935382405
  0.2347438824777297  0.7352065978029896  0.4878313462664121
  0.2362786141994841  0.4894418649772124  0.4905936919050625
  0.7371471634901964  0.4893795522972065  0.7398743584749999
  0.6158288264772872  0.8598485551087376  0.2366314333549844
  0.9872793583734890  0.8629953222974621  0.6133746777905986
  0.4842286291580884  0.4895319160835307  0.7409925783629322
  0.6166362346405233  0.1086231931907133  0.2364422105289145
  0.2350863389039037  0.7381777954131743  0.9964522542125009
  0.3627492600965167  0.7372287777855331  0.8694115280402799
  0.2341049699261247  0.1118755273496756  0.3675974015929623
  0.6098203058018714  0.2400140750815379  0.8621462541195398
  0.9871076891875389  0.6113450633234777  0.1175418397462774
  0.4879324336848653  0.8636311452915370  0.6190872693596351
  0.3591850623400142  0.1136225854737637  0.4916629332011994
  0.2327533321512547  0.8638155719883465  0.6147896678751202
  0.8659050723539978  0.2416315809651474  0.3627951545417469
  0.2341886253591701  0.7347114768359745  0.2381144412832768
  0.8606202426973830  0.1229186233640674  0.9771327053927760
  0.7367765519112670  0.6118337996009164  0.6164920937275584
  0.6129146560039022  0.2361035180714613  0.3620748964611743
  0.6147230124086346  0.7398220193335269  0.8697719896843845
  0.4910196796814201  0.9877972301167052  0.9900916233490581
  0.8659084445519042  0.8637447385162017  0.7399512109897470
  0.1114011099338550  0.8594342767505539  0.4867798596932518
  0.6116778320529278  0.6181370066284300  0.2381544332835996
  0.8616710024048617  0.4860485916050439  0.1149828416478371
  0.9897100040113666  0.3612204749437786  0.3662837685174080
  0.3655576021090685  0.9906390643275993  0.8679110511541429
  0.7342876229470173  0.2392198508568417  0.7397193075418834
  0.4859026602660161  0.2388333318420540  0.7414687090351123
  0.9892946682190223  0.4866567589661904  0.9935860740056806
  0.3636027370924263  0.8645003057082468  0.7428387187181106
  0.6175197898525301  0.8660404294934808  0.9940427541651603
  0.2352953983383623  0.8614915069675079  0.3625601253944213
  0.4859488035565511  0.3596981654160364  0.3594045682268170
  0.8596083873481237  0.8534929796403640  0.2519759694885165
  0.9880715575212740  0.3603233994368369  0.1127154138809863
  0.9885114980224874  0.4893703750673926  0.7377879335674601
  0.9862727480179284  0.9894563471279385  0.7361426905418139
  0.4892101276729685  0.7385805540968574  0.2355116121580858
  0.6132048901007188  0.6172492424129888  0.4888320760953923
  0.8597027777218343  0.8603887891186530  0.4934952473320045
  0.8630623300120934  0.2379381207239873  0.6126644707359419
  0.1098933494244862  0.2380334699603028  0.6124353050834649
  0.4884798841648207  0.7364321714541692  0.4885785504880296
  0.3646544999140298  0.1134900120380835  0.7412288086721575
  0.9863731864583407  0.1151756759868105  0.6139403378769078
  0.8619711479406205  0.6069730656427074  0.9925379902608791
  0.1094150427747290  0.9900971474589212  0.6150147821147279
  0.2353819888420387  0.6123798194648951  0.1177149996761649
  0.3658805745970882  0.1143011397105158  0.9899780352905554
  0.7364884188306119  0.6137577077457786  0.3635994923867073
  0.2400464901024579  0.2392139977820921  0.7401412147258111
  0.8644918236843053  0.0005013086948222  0.8551003266094699
  0.2404356442687234  0.3634132782183075  0.8689259648988235
  0.2337163337020337  0.8599616407500715  0.1192518104658851
  0.7349996211370248  0.9834371487996262  0.4931508033809501
  0.6115674833963913  0.6140300048797686  0.9944495838120273
  0.1002018626100037  0.9852449333462753  0.1164341431572554
  0.9846342242144335  0.1170375651377826  0.3648864108638375
  0.1068410556354331  0.9896855575911581  0.3567324342398640
  0.3667300340652870  0.9876758544098249  0.1115739228347107
  0.7427112630950491  0.9750478028517671  0.2412254562836365
  0.7352027912588440  0.7363741282117816  0.2384735572827765
  0.9872931909031515  0.3629185511855114  0.6103338207638387
  0.4885018056571268  0.8618695460565883  0.1145266403513120
  0.6125926329069640  0.4869425303004025  0.6162161668942381
  0.1120621488735115  0.4882329724179870  0.6110043714892001
  0.1119320487799237  0.6107637367219247  0.2404767357904697
  0.6107551548781337  0.4865187102664916  0.8695230348484541
  0.6146184785213528  0.8659989682262839  0.7450832161355554
  0.2382420878249368  0.4894527372184970  0.7409241723186467
  0.8605217252568027  0.2465080613711771  0.1097959298090786
  0.1081965978171620  0.2367486772010154  0.3662598350646832
  0.3607372123217922  0.6107861151466122  0.4876277001237765
  0.8619244069062574  0.6092702659552647  0.4893080484095562
  0.4881635456514405  0.6131364441023268  0.1164742670494811
  0.1123811194290523  0.4848555302884442  0.3650390735441914
  0.6122784342401150  0.9887062850111507  0.6190684041448082
  0.4848957803302372  0.4904219798867164  0.2356352838565986
  0.2351816081253637  0.6094585631158311  0.6133378486715214
  0.4890364187789458  0.7362280129444246  0.9937420908294491
  0.6112212924399644  0.3682246604359878  0.7418693427072265
  0.7326367115914276  0.6111348089284498  0.8653305750688415
  0.2327909499943118  0.9837092862753359  0.4887591374205697
  0.9899310087157093  0.9873621831076995  0.4868962570618218
  0.2355905067655928  0.6131898822624736  0.8705746773012597
