Cr Fe Mo Nb Ni Ti 
 1.0000000000000000
    14.4324500656286094    0.0000000000000000    0.0000000000000000
     0.0000000000000000   14.4324500656286094    0.0000000000000000
     0.0000000000000000    0.0000000000000000   14.4324500656286094
 Cr  Fe  Mo  Nb  Ni  Ti 
  56  13  26   8 145   5
Direct
  0.9836597993471398  0.3621252754028128  0.8608721337500495
  0.1160626904113742  0.6094870996307595  0.4854791602360263
  0.1103145781671839  0.7365537484761409  0.3610068713295733
  0.4902939094176288  0.6042356277297589  0.6133067665296591
  0.3658981343103404  0.4801720017135203  0.8646891044417333
  0.8605191970369866  0.2385982498594421  0.8676734743870467
  0.7343336075180741  0.7372054759604183  0.2262947254603213
  0.8624849455269967  0.3638818980411437  0.9852931783205144
  0.7433584918231757  0.8587395261331831  0.8724211444985597
  0.1114102165474903  0.6120144409779438  0.2402674572387697
  0.2265973098213936  0.7309632488894625  0.4810081051780380
  0.7320938287133452  0.1107326267439698  0.3586422045633146
  0.3593973254657917  0.4888898616171629  0.1147640346259263
  0.6107380915711406  0.2398012131088679  0.1189488241293983
  0.6097642791302255  0.3629369988712070  0.2380489050396145
  0.1132156528449070  0.2335298306953517  0.8643996585548597
  0.9874279335970240  0.7333071666769730  0.2365017745799350
  0.7366344902543073  0.9863839951595842  0.2346851775244654
  0.4849559369893083  0.4932663405763233  0.2352676744544264
  0.1147457868389963  0.1092993210886439  0.7416430012359175
  0.9925359927577989  0.3675098097764554  0.6223041626311981
  0.4834874469075796  0.7297912263940645  0.2409661926976072
  0.9881265265611641  0.4851468596818119  0.7364967209964710
  0.4852296877937888  0.6121759559113463  0.1162496764402048
  0.4856629626113196  0.8493879983995520  0.3553571163853191
  0.8628420623780177  0.6061236565223879  0.2369069634668325
  0.6114956496597301  0.2357088160765065  0.6176425475392781
  0.3548467882557803  0.8577885308098999  0.9880410051402750
  0.3558369075257429  0.7340835351256209  0.3600829597770462
  0.7345831934437403  0.4866378432855454  0.2382172657148032
  0.6069867245862232  0.3612467102137444  0.4866800324762457
  0.6104138720710315  0.3651805836034582  0.9938359060851075
  0.1123481016595476  0.3629428349410437  0.7483054966107282
  0.6097234350990230  0.7346957105664218  0.1163535635121087
  0.4853342745772958  0.8594577680939131  0.8721346077484755
  0.1119775315657491  0.1203625134124161  0.9866137377836937
  0.4884087605631037  0.2425341190750926  0.2326479808983171
  0.2415562473465691  0.2361681235778368  0.9867754129080679
  0.1171577919270431  0.8616901580182073  0.9930826948226875
  0.9893878652357062  0.7366280090454101  0.7429216066214023
  0.2341145074839618  0.3645349716245441  0.6152810491924553
  0.4867425021979491  0.6109685866347140  0.3617555536347257
  0.3605336149595293  0.2394735333295815  0.6205003312329097
  0.7274745770209287  0.2399293254902206  0.7444548479803362
  0.6075172705277601  0.1099824317244574  0.2384667020949889
  0.2349231087864174  0.9861372721628594  0.7432415542885537
  0.9852576721200600  0.4887469759456657  0.2378676991868841
  0.9895498798051786  0.2397647820986177  0.2379021128347667
  0.2354269848186173  0.6110174111192650  0.1174744878120499
  0.4876686699523666  0.7392842525974415  0.9938287461176134
  0.3636492895254867  0.2363853919606890  0.8608262973246125
  0.8598828967911574  0.8543702947475903  0.4874497899771303
  0.4847609398575939  0.2388243590086524  0.7428745572191683
  0.3631861359208123  0.4904461561953343  0.3567837315656757
  0.3619095357807447  0.3614222358746650  0.7410913574611627
  0.2345548125880959  0.8582846767320306  0.1162231091101531
  0.3668106489575885  0.2384574172495057  0.3622834432214346
  0.8649022256193677  0.7329823615168181  0.1221434081530307
  0.2376128665252326  0.4890208711570427  0.2353862410234821
  0.6096047989163335  0.7311672516301509  0.3621153083978778
  0.7363236663982516  0.7325098867059180  0.4855048222486995
  0.3559569428563608  0.6130083881576164  0.2379287465774885
  0.6090846140205425  0.2381569779086783  0.8638618888187392
  0.6160832603757389  0.9822757055495870  0.1266043658509368
  0.4830269025533573  0.3683149251066869  0.1177467396687541
  0.2351824984331839  0.7322855173239495  0.2397355109066693
  0.8622197818102959  0.4858560814594745  0.1129300985976424
  0.1115832072174520  0.3671093756443879  0.4860485317387351
  0.4866320399137861  0.4876602897717364  0.7428331132188640
  0.7349502261715021  0.9841830153949208  0.4875973257618387
  0.1123425510538659  0.3605916622105211  0.9881026916973921
  0.9781149551077621  0.8658457238780689  0.8750149552795417
  0.4866942998011595  0.2400673864622364  0.4887464023913296
  0.4902512184830025  0.2399614107840379  0.9938617428055505
  0.7365067534090411  0.8552645306485540  0.3613693566646487
  0.4849723179531801  0.9820691177279923  0.7417385599762408
  0.6093383161091964  0.7328987231485069  0.6131276512059056
  0.9843938393437781  0.9872962298496915  0.7395400410995769
  0.8605447450490065  0.2416366395929170  0.1187060129242474
  0.4866606386719341  0.6119483688892829  0.8658450885685973
  0.7479840797906695  0.7544049375117089  0.0046510884698004
  0.2392158974299015  0.9866779325677151  0.9901401403504708
  0.1105330966106364  0.7384375075664866  0.6138718736208234
  0.8563134992921815  0.1074471310499910  0.9940541547428362
  0.8597219039762921  0.7339164264739063  0.6148355440934089
  0.3618586533855236  0.4874078223663666  0.6165369829201715
  0.1108981451709942  0.2376625866813920  0.6156592273904122
  0.4839418262464035  0.8626234090823373  0.1142798477198709
  0.8619669070188913  0.2386648213876843  0.3622191413019483
  0.9878560180563405  0.4853348661910806  0.4892696379474423
  0.9802244274554222  0.7355622838524811  0.9921602410602499
  0.7336480091070995  0.4809466272762634  0.7364734380354309
  0.2434634914676128  0.2418994916625750  0.4852317724106993
  0.2349850874866419  0.9862356673663278  0.2348354341937695
  0.9861164770594958  0.6065050010750105  0.8626161806963487
  0.4846076631842069  0.9859251245100172  0.4877702236291824
  0.8077291524363008  0.9265799175991526  0.0629549208498263
  0.3585145899571865  0.7364468488971501  0.6137660439452610
  0.7357215880602707  0.9870084511308947  0.7398799069666518
  0.2371517686574917  0.2402928607401142  0.2419741998839487
  0.6259539763516280  0.0909866097997887  0.9924975658018741
  0.8595407293877877  0.2358837588908007  0.6105198300687147
  0.9793564147769119  0.9869520321790087  0.2315761784369260
  0.4847448766041250  0.7335183719460718  0.4834735919168621
  0.8593776797883008  0.6081926594766673  0.9927535803223430
  0.8617084218565355  0.9863700665539867  0.6109958268116537
  0.9860791603173840  0.6106100165962012  0.3625447843647053
  0.9873935090654155  0.1109230727879326  0.6137060638792261
  0.3637877513643986  0.1120133990984164  0.2399591578136114
  0.2378248824452488  0.2375659964384387  0.7428545853994859
  0.7323580368663702  0.2390185241948165  0.2398590018550497
  0.4860445293434537  0.3657308258215760  0.3591732982555823
  0.8610066366471332  0.4872066074493059  0.3601838702649733
  0.3614223308999117  0.6131642356520195  0.9920267267277892
  0.7315333906435321  0.3611194184778912  0.6121986428749974
  0.8642416709934301  0.7317180318463269  0.3595975356703702
  0.8545629158841338  0.9878603399882644  0.8735170191523999
  0.1124645880777823  0.4864057404258443  0.8667216982793757
  0.3597881415074758  0.7381848351909184  0.8661358585160825
  0.3614767535568950  0.9891485620986843  0.1168123538295540
  0.6109533165982723  0.4879651538774405  0.1145047052137956
  0.3586858480597794  0.9846487211421208  0.6174955697584814
  0.7337022596664173  0.8594556258667702  0.6115542954359208
  0.1122618322505760  0.2381135406283442  0.1129300430799102
  0.4843682570249724  0.1130885400285146  0.6174993443914422
  0.7325422032239689  0.2407994411807048  0.9906249055300052
  0.6114752023007385  0.6109759114867430  0.7407929094739713
  0.6094714458086011  0.9845606434350218  0.3602195382183875
  0.3610612419352773  0.1109719992156970  0.7390002972738415
  0.6113748402114592  0.4860792656299615  0.8669546979657737
  0.6128266783565098  0.7427517590377281  0.8703394431590974
  0.3603843537406008  0.1112228589716483  0.4887958382030742
  0.9864299391774234  0.6093156176940570  0.6133873284703768
  0.8601860219222526  0.3612643593468507  0.7405313709276697
  0.6073153859374274  0.3619636947797933  0.7396337585516085
  0.6184384794504562  0.8735029385531924  0.9939620245075766
  0.6112517240194641  0.6125126168302203  0.9934941056123028
  0.9856769946260716  0.1114973402804766  0.8665875422414804
  0.7334001623345389  0.3605377247602339  0.8665167770366702
  0.1119531907927740  0.6101001512515113  0.7378074914734503
  0.4855762745790174  0.8606519946928995  0.6148672843109217
  0.2385566109472021  0.3641203745093909  0.1138729112797109
  0.6109453039010763  0.1133055382436523  0.4884069240762829
  0.3581649357904668  0.8582779239444813  0.4832378752602164
  0.1107475672092113  0.9900167487420679  0.1127738361848581
  0.1155113642579628  0.4869603398264388  0.6163123972986658
  0.4875096911767320  0.4876466495487545  0.4850937924350487
  0.8602553756661675  0.9877192619265053  0.3605123201414894
  0.3635004073053987  0.3663746641497752  0.2391750837604359
  0.9875421872940305  0.2410164878958395  0.4877298506326676
  0.6095629424621459  0.8567926675140746  0.7410390350960488
  0.3600952490998510  0.6102971394157158  0.4833472339392855
  0.3633995942922070  0.1124561721579652  0.9895548647794606
  0.2362249637457627  0.1097340808673814  0.3639828425144156
  0.3580260351436494  0.7339132877109812  0.1157218960974306
  0.9843433606216376  0.2372320243010442  0.9881307422365948
  0.3602524378674360  0.6111919145482325  0.7428060088393933
  0.3644406915307188  0.3675716302338238  0.4861103266581555
  0.8598668808940404  0.1125516940037346  0.2384745353857765
  0.9862988934940281  0.8630884913256551  0.6124563622851343
  0.4866363741913781  0.1078322533439842  0.1165054903513621
  0.4857015129388786  0.1107815191883844  0.8634760622223733
  0.1102001643777194  0.8586575944317653  0.2377683059320039
  0.9841780196045451  0.8580995961867059  0.3632883932807905
  0.6105474068025849  0.8581313176492811  0.2395933999632291
  0.7325079199054129  0.1126053767394553  0.6133006608827389
  0.2350076819063328  0.6088774134022215  0.6153310167279041
  0.7375347456139764  0.6076179551596950  0.1142117900424944
  0.9914621300995086  0.1185928666573818  0.1132468192072939
  0.7362818055885073  0.4843772213473285  0.9912073926212200
  0.1094075587000395  0.9855112779147274  0.3597764896305323
  0.1098202977565197  0.8619073054731353  0.4855604231875769
  0.2335484586594758  0.8601179036863378  0.3614112656822117
  0.6088421197233139  0.2377752671682283  0.3596927670521770
  0.8591366997699537  0.6074966147629051  0.7380215666960733
  0.2335811526822633  0.8641975590144033  0.6142627350829589
  0.6074655408690771  0.8564585673936408  0.4871866792688100
  0.3615261114199282  0.3634277363461068  0.9902074361596999
  0.3593909850375270  0.8613435913354792  0.7431020745124538
  0.1112235541988971  0.7393877971579477  0.8653260983609768
  0.4881169823449875  0.3630762825875902  0.8647658495158053
  0.1114512072388560  0.6117768403562069  0.9931055203338008
  0.9861049481264909  0.2345260931114317  0.7457697085630199
  0.8603366002235053  0.8584820162507826  0.2344509467594094
  0.2340785835616271  0.8612186342914685  0.8642081390723241
  0.2398286636955837  0.3617937996379853  0.8641042578242709
  0.2350672806434567  0.7369272454274841  0.9925696253884591
  0.2391569642317908  0.1108413386702855  0.6166036183190446
  0.8588937852818541  0.4846676920880598  0.8642882219744848
  0.9851982871139671  0.8606170963123918  0.1111403902203831
  0.7373818958585668  0.6143371162924606  0.3585116002061601
  0.7371862397788805  0.1119880984608120  0.1217395667762130
  0.1104612502188604  0.3663815099198004  0.2381827496245270
  0.2395086453324768  0.1125415130738711  0.8625404662360641
  0.3625001717845888  0.2372292814681325  0.1145560375162488
  0.1125772239881778  0.9875523542356387  0.6165332929040767
  0.7361777068100324  0.1171180154519258  0.8614441124944482
  0.9855964036557145  0.4854940521236067  0.9900604179279969
  0.6100961742029000  0.9804637947097892  0.8618587277442186
  0.8614000413626686  0.1140575957267028  0.7412314098362716
  0.4821188299560878  0.9840010321200042  0.9877352230577288
  0.4854715543770253  0.7355672259347890  0.7438660435767707
  0.4872316422912376  0.3635291439229423  0.6167676299639332
  0.1111610094422063  0.7359200966139386  0.1156238783411149
  0.7346368278573991  0.6095148124122834  0.6150512530928242
  0.1116930831893843  0.9895147477312676  0.8682479073603478
  0.6102053318071646  0.6105518659460886  0.4860158245888649
  0.4863055904011034  0.9837431175814683  0.2420782605608337
  0.3611564522145259  0.9870850658321306  0.8639622440418262
  0.9877569660239560  0.3644597085848846  0.3613150979493810
  0.4858431103042559  0.1138609040695936  0.3600884026982585
  0.1107327583237210  0.8646373275294381  0.7421568833519412
  0.6085747124106839  0.4857394120678867  0.6128597714823854
  0.8599070280799737  0.7335102558060834  0.8586057857220465
  0.2386411779659640  0.4878393782650798  0.9886960406535752
  0.6105599267427465  0.4876134676402215  0.3599102595256598
  0.2373173611920195  0.3692351098251034  0.3632338086996834
  0.1119734641380109  0.4881697353887324  0.3601887651932494
  0.2337977800686083  0.7367209894357184  0.7404720641622768
  0.2356978595176799  0.6081347275042245  0.3605252895752960
  0.1101518813729998  0.1129617736006951  0.2407106340804772
  0.3576408092802008  0.8587173100322615  0.2393457742763048
  0.1100276519720359  0.2395903925390792  0.3652293619436320
  0.9885093232052741  0.7333963021954363  0.4873498826095651
  0.3610469931653714  0.9858967973649259  0.3598599247289090
  0.1123718570790570  0.4882639586623081  0.1148354663409121
  0.1118846083781602  0.1123448583181088  0.4859708666688108
  0.8601081602099258  0.1106661838314260  0.4845891803863510
  0.7301030684817754  0.2391776301817566  0.4847551698799404
  0.7347002758326572  0.3640168220808457  0.1154197882063300
  0.2355137052818610  0.4883573527995089  0.4873425817014075
  0.8597390551407836  0.8590709089122774  0.7380886586359590
  0.4855537053884444  0.4879140729767942  0.9926324095840833
  0.9878153825280742  0.6083041621643720  0.1165390542160708
  0.6086837575410813  0.9853222651884918  0.6144537984188033
  0.6131819250837972  0.6110044182839904  0.2381024555505436
  0.7342031172472734  0.7369137304946990  0.7414695705149401
  0.2369268922471217  0.4865453025145627  0.7439869808627542
  0.6076195251827425  0.1131287203150297  0.7404546119197843
  0.8612226784194784  0.6114609771912841  0.4872185041315722
  0.8607317641874462  0.3675303803774828  0.2394387793020908
  0.9877773330127013  0.3636177575049287  0.1151092859152536
  0.8612731801898196  0.4854452719628712  0.6155172695394248
  0.2364648365283721  0.1143274641965873  0.1131906987776904
  0.7340347488255888  0.3629284938303496  0.3620156227760765
  0.9878257082108186  0.1147473901888090  0.3625231783541392
  0.8602854184535337  0.3645631332883386  0.4870167215736729
  0.9843290523623240  0.9894786191361972  0.9965308281143687
  0.9879200350039300  0.9896955657130803  0.4866115996650886
  0.7376095106983012  0.4902432272517646  0.4860739792696875
  0.7344258022285939  0.6143662557249150  0.8712683685967942
  0.2356571917037802  0.9850431974315079  0.4881928632074393
  0.2332932109942776  0.6141002387024760  0.8670230359350880
