Cr Fe Mo Nb Ni Ti 
 1.0000000000000000
    14.4324500656286094    0.0000000000000000    0.0000000000000000
     0.0000000000000000   14.4324500656286094    0.0000000000000000
     0.0000000000000000    0.0000000000000000   14.4324500656286094
 Cr  Fe  Mo  Nb  Ni  Ti 
  56  13  26   8 145   5
Direct
  0.8585559971484317  0.4867091135822413  0.1131363605952260
  0.6083232497498511  0.2426165763920738  0.6149636584905087
  0.3588496187877963  0.3646516060350647  0.7382504736876250
  0.1147260847038613  0.4906691282167358  0.3617331245312596
  0.7337491955342333  0.3634436724463543  0.1151363896862388
  0.9931488464417813  0.3739006552122182  0.6139102118264461
  0.2348887094693445  0.2385873539048666  0.4886537685875070
  0.9846639671237085  0.9865831456334458  0.7408281322960225
  0.8611788036880600  0.9990283331916561  0.8579834558299348
  0.9848967495819753  0.8598852341295963  0.3668322258459968
  0.3610348239670830  0.3651928826026790  0.4976000973138379
  0.1141618849347029  0.4848557306336295  0.6144083465860454
  0.3628488284508750  0.4886156172274707  0.1115466286095847
  0.4862048012840789  0.6091314184879185  0.8685821143270590
  0.9846404152894523  0.1161676599951515  0.8609168575847482
  0.1185796033247868  0.3645448634390388  0.9873525250250914
  0.9866728857958472  0.8573856644076024  0.6184110019322085
  0.9920990085684528  0.4894358445249415  0.7393378973413575
  0.0998372969484904  0.9805017113744485  0.3513446167659271
  0.4919506744943210  0.7361700095472959  0.2372592017265356
  0.6185812055598090  0.8618015428798198  0.2371480050428075
  0.3578216341540091  0.2364669662703922  0.6143436823200861
  0.9729949315155886  0.1318652288315043  0.1008816549458779
  0.6183092545333733  0.9859175819329512  0.6246861536719013
  0.1139440186300427  0.4876462758739847  0.1119372178855722
  0.6104524062386157  0.2384757243565039  0.3669073812339251
  0.9843838615463509  0.7309887207302498  0.2427841540207223
  0.8661613725234086  0.4854802320331783  0.8637379830167852
  0.7359175863712731  0.8576523567289548  0.3691013421962645
  0.8553482243801704  0.2420135937021983  0.1170474596996012
  0.7323123368541193  0.9918610236056663  0.7373856883178761
  0.9852399505878557  0.2409521143145057  0.9783709157639509
  0.8617211343931899  0.6026948457564587  0.7255297041542129
  0.4853181970110571  0.4942418293234013  0.9961343544531178
  0.6102133845859180  0.4879343978230554  0.3674728327418668
  0.4925473089484792  0.8608119042774319  0.8647356208672494
  0.2384773868615956  0.3667131883525606  0.6168491902306767
  0.1117159085935877  0.2405161776521768  0.8659430864617960
  0.2382195295449984  0.4896623209151044  0.4929774833175904
  0.1121684220271442  0.6091014063079506  0.2331670516995440
  0.4921343466990606  0.8524664140622100  0.3583755961920320
  0.6139874500739780  0.3639394582765809  0.9915286298198503
  0.8631027634179680  0.7272510297079715  0.1222073300137575
  0.6075549511538333  0.6054611886096165  0.2397788273468034
  0.6204742530581052  0.9931952495739363  0.8635401702036241
  0.4883895333505255  0.4888564920534711  0.2352162237286525
  0.2393654600266367  0.3601036023056560  0.8642780399705207
  0.9934163766922789  0.2388116198908039  0.4885838368691919
  0.4875757560107558  0.3663542166409947  0.1069981239825029
  0.3628710841878506  0.1134577096727439  0.9919316602780311
  0.6193056654994242  0.2356614248771663  0.1099814929056923
  0.6086221894588290  0.3566582452445332  0.4842090832756515
  0.9874262507187327  0.6004444275124464  0.8632068946085710
  0.9849950563336042  0.3669741615544325  0.8641298300587794
  0.8599976423860514  0.4820402417703304  0.6175322254466892
  0.6133165091525207  0.3725030446596701  0.2427156051341493
  0.7464709761225361  0.0017227068392625  0.9800715686137477
  0.7329548182848934  0.3647163508493620  0.8641067354580200
  0.6106141449522224  0.6117871098301226  0.4875322379129440
  0.4879845364594044  0.6123814849367031  0.1180616441311940
  0.4864267389106585  0.6103793843338877  0.6132193838635535
  0.7361947435427781  0.2437365155912453  0.9858553813967099
  0.2383070196093240  0.2397233952913218  0.7435585801259524
  0.7498443435684375  0.7340314620653982  0.0057137150883312
  0.7372428078895659  0.6095644707109095  0.6133213141165953
  0.2368439487559899  0.2376177634172792  0.9889590931853283
  0.4878738296125846  0.2388465178965851  0.4934314192379139
  0.7305257328235009  0.2455489965646928  0.7406684176090478
  0.2357610819746820  0.9863261855015567  0.7424025217355645
  0.7646773498001381  0.1028828732366380  0.1230358274515263
  0.9857356410713465  0.7354731452801621  0.7416405384931745
  0.6109485479834353  0.7301123236640163  0.6170189804695981
  0.7338789013561655  0.9849952492979562  0.4954823936305000
  0.9907933848366884  0.3671215356744340  0.3641186594934947
  0.2313507973172000  0.8624164830685395  0.1131788620718487
  0.4894841862172745  0.9871312795689464  0.7467944737010178
  0.9868205885694978  0.3585159293823392  0.1129750215297443
  0.2324390815034273  0.9899660915924593  0.2378792948934114
  0.4960865277898966  0.9852176284348597  0.9843818038843568
  0.1138554546154086  0.2381124187993137  0.6189467037429177
  0.3588359684402843  0.4852977789685701  0.3635740332519712
  0.2322950315455053  0.1125791409735280  0.8647418850206641
  0.1164522530372822  0.7387987542497196  0.6155220660829791
  0.4891940337361717  0.7355834757196789  0.9910938787768200
  0.9528917810300893  0.9843637218489339  0.0011595774585186
  0.8608947898605983  0.6089493247360351  0.4942967896951203
  0.4919196208813503  0.9844919097376946  0.2375868861869881
  0.3614104517289747  0.7386005460477344  0.3610556948246481
  0.9736166757387337  0.7407109459250852  0.9924091443237353
  0.1074418477219513  0.7392149537309839  0.3616956421350718
  0.7364371931984345  0.7323824378931799  0.2434350941559412
  0.4934119478632072  0.2436577034456882  0.2340539326133231
  0.2338401339682839  0.8650638715773626  0.8694245942614005
  0.4859306956835192  0.3621958624834148  0.8695153555052443
  0.3656530587507010  0.2369659118201867  0.3749619650933114
  0.7537914860066292  0.8541842842568657  0.8793835579992008
  0.4889612068220209  0.9861289309032111  0.4937573483646120
  0.3627799643102027  0.7373671418451709  0.6193419008626790
  0.7809620291109113  0.8868841859057298  0.0962071076807725
  0.2340624239125826  0.2349504679910921  0.2340600694757740
  0.8638631631767149  0.2423385381519951  0.6122764988757452
  0.8581045733355879  0.2234149459230900  0.3547037631156288
  0.9399744304744166  0.0123237451300069  0.2174609849011879
  0.2341008548643195  0.7367256093352276  0.2360836551388583
  0.8603232830177642  0.1167714193348465  0.7375949741275328
  0.8626391991989151  0.8591462703492745  0.4938177212615213
  0.6099204166671841  0.4877061168797455  0.8666074443993299
  0.1161652846551705  0.3655296087117636  0.4874484015417219
  0.1134624002138112  0.3657109493857310  0.2372216807149762
  0.8586156073240717  0.3635287206845141  0.9873074395248187
  0.6114080448335745  0.7330286205776582  0.3665147971092294
  0.6130428840223426  0.4876192979356775  0.1134120546980022
  0.8617364833737775  0.4872675166164948  0.3651007216663638
  0.3614211373638565  0.8628927802372257  0.7462193485500430
  0.4881976890767327  0.1170999107719724  0.8659895483930735
  0.4864556560110981  0.7350101526123726  0.4876243961154171
  0.7324463886352698  0.3641012210535467  0.6128003613274766
  0.8601807531511753  0.9880054319970945  0.6196017757220340
  0.3618290005215802  0.7393556672756262  0.8674813766006809
  0.8601070950345054  0.9852819281744293  0.3719734018946371
  0.8603971055882147  0.3670713766902497  0.7405344977359388
  0.8587069954673808  0.3645858600363849  0.2389743131644158
  0.8564723391302909  0.1291153689961096  0.9755197982116058
  0.3614562975912493  0.6115279360359150  0.4884987094112141
  0.4904152459856420  0.8608751068805348  0.6198094081515477
  0.1121248168322855  0.2353981163913577  0.1062143780822474
  0.1033578049304904  0.1105108470881051  0.9898354191184179
  0.3612677960021360  0.8612678205699095  0.4882968255868012
  0.2331857049191153  0.7371965490022867  0.9923371720372351
  0.3619771962145954  0.6112213495779956  0.7456147551512556
  0.6197154293393581  0.1155422634257808  0.9904376053957380
  0.9873202455717685  0.4860023364623726  0.9892616820502403
  0.6109293465516504  0.2389202639767980  0.8663897806220381
  0.4834125656043973  0.4896264770235463  0.7439379939356220
  0.6084657100051797  0.3636153644066653  0.7416412345166522
  0.3640000646527373  0.9872840437979422  0.1109241564308650
  0.2363943229371585  0.4877529547100251  0.2372913185946336
  0.9874997247831043  0.1107311840679230  0.6180609121512805
  0.4906603764117003  0.1115299677049845  0.3647175298318746
  0.1126079608677412  0.8640050129435095  0.4904528992960468
  0.1005763323164643  0.9874524671567951  0.8701137345221261
  0.2383491451560951  0.1122891216068135  0.6184262467917074
  0.4866611291538399  0.3664301090143923  0.3668548311879610
  0.4841387045719926  0.2404327082777102  0.7379806210642977
  0.9763491081505528  0.8598168163735808  0.1228208891991920
  0.2369978403832707  0.7358819305509251  0.4882754404046859
  0.7354932647534669  0.6088380102686889  0.3676704306130342
  0.6091138694051753  0.6117179878609018  0.7443162577402743
  0.7349108275437777  0.3634695580853377  0.3657423189006039
  0.3614387119449659  0.9862910753631253  0.6214603745158028
  0.8636009734007951  0.6070085827655840  0.2432560711826730
  0.7367336445570394  0.8593045710966383  0.6170866747528834
  0.2348573091269513  0.1096359236441131  0.1094717540400830
  0.2352320571616988  0.1092080988390856  0.3667807801862204
  0.4856610959061135  0.4879746599823472  0.4901033877470923
  0.1130323826871551  0.6107371444271208  0.4889643248376178
  0.7290917594505644  0.2418013377878642  0.2387821541488807
  0.2333907938912394  0.3643043510076265  0.3647633711750229
  0.6215294608023909  0.8615864206589027  0.9952819064732283
  0.7434578678971402  0.9833992087199195  0.2470109962126285
  0.1139627633610214  0.4854826933208476  0.8670430859154831
  0.1111966391670459  0.9858918760614453  0.6197919403998863
  0.2322437869689910  0.9869932646736408  0.9912650403273161
  0.3614540671064216  0.1141105749767924  0.7410878619547004
  0.3618240566211481  0.8630690462723364  0.2361981958120727
  0.7371286131584981  0.4876456500294585  0.2430548284179914
  0.1147487983163991  0.3652315588839800  0.7440150728959718
  0.0994920930290505  0.8660188452852620  0.9927827607930453
  0.4875992425540410  0.1154914517231481  0.6164979765912109
  0.3627478326678422  0.8628529805003720  0.9903439084945654
  0.8636708343309576  0.7333783115841621  0.3690594462249386
  0.6138915432232960  0.6114897492076640  0.9940435596341887
  0.2355401992694075  0.8632292978407443  0.3612763114594543
  0.8611348875458610  0.3658230810719452  0.4862008877130695
  0.7358004660209613  0.4852900994044619  0.7418991701514316
  0.4840468050828253  0.3635052420433644  0.6155611275071198
  0.6226168024832667  0.9880386220687668  0.1134342204834037
  0.3648767064252634  0.1106618670895888  0.2369080285636762
  0.1026664484962919  0.1105556904467943  0.2356183159223421
  0.6176051981233175  0.7365625377505903  0.1144477113120531
  0.7339232740695054  0.4838651525678024  0.4890291135177129
  0.9866855540015922  0.4883348911006207  0.2377850634575373
  0.7328352944103990  0.1173949647511667  0.6155884919829181
  0.6177847384713407  0.8579576879152929  0.7451688932012305
  0.8599132522147201  0.2457065540475788  0.8575161349309737
  0.4906388135107099  0.8615770784374882  0.1155506818809722
  0.2380416123491900  0.4874104792407299  0.7418848682611733
  0.2357831623892493  0.6127052280179087  0.1146177041497409
  0.4856877828425930  0.6115571965158246  0.3650971560416285
  0.2374496500395744  0.3652387720436649  0.1124361552113772
  0.9917346480453990  0.6095885754549748  0.6128840295094192
  0.3626012851804137  0.7386564301021482  0.1153937723534687
  0.7398387862254965  0.7304587903762195  0.7385759664535143
  0.8598411131152093  0.7365851006805521  0.6147347084490488
  0.1040367284048579  0.7362496401654404  0.1139376245500650
  0.0981734097150550  0.9909225803037551  0.1136683572591243
  0.7355393434546285  0.1203563281855581  0.8569150495640770
  0.9912122902657878  0.1103674120023036  0.3674337360420363
  0.6115025520070857  0.8565686739494468  0.4913075888960969
  0.9847054844612573  0.6075986341481729  0.1152933615917882
  0.6117216314488789  0.1164763621896289  0.4932145989012875
  0.7340278738306577  0.2400441885219767  0.4891721846205684
  0.3615124377016071  0.3644859932603698  0.2366802101515866
  0.3608366287817121  0.4876644605336118  0.8700920749037448
  0.3632846381179023  0.4898692192883030  0.6183776204884600
  0.3628601235020807  0.2363016344652901  0.1107276512016278
  0.9877771282143057  0.7367880060514931  0.4925658107299804
  0.4921440305027631  0.1118218097313300  0.1133450050150467
  0.3605779702617272  0.6132401647877253  0.2355630748010499
  0.8634766714337612  0.7226265495880264  0.8623928998689390
  0.9890911363187994  0.2433533639077929  0.7438760678246953
  0.8625745705115838  0.8566702769720901  0.2530952094134365
  0.4886267978754688  0.7338574098720650  0.7480530013765585
  0.4884355853810707  0.2362574983020035  0.9922036822870729
  0.7359675603278580  0.7346335964965340  0.4890963860937895
  0.6121207503873382  0.1180090281245927  0.7381919766953385
  0.2376117545831034  0.4887658689296105  0.9908958046531092
  0.2373264747870029  0.6095309833644775  0.6159383509992178
  0.3592640298387298  0.3608852997935456  0.9903376521606576
  0.3610557554558950  0.6150900023696806  0.9930238049407245
  0.2337871797168288  0.7385332333269290  0.7450507453850334
  0.6173006745679401  0.1097103994068284  0.2392815878642790
  0.7368365688150562  0.6057861346820037  0.1166232688948578
  0.9891494212168855  0.2359359706342333  0.2381974912208289
  0.3631515966642733  0.9864730280151952  0.3613558002380971
  0.9888195704447019  0.6077640993113860  0.3652249385728869
  0.9749725470517024  0.8647241618639397  0.8651104661718528
  0.8595015652067997  0.1118411045406779  0.4915986014920082
  0.7367431364676420  0.4841279453216906  0.9890655337446225
  0.1111439820896298  0.2343409211699277  0.3653095620333566
  0.3614906748895436  0.2369200047654931  0.8663580539380450
  0.8593079707462957  0.8630483601894641  0.7371856415208202
  0.7300413288918602  0.1106619149140866  0.3673483504258367
  0.6150350977739186  0.7369428168699041  0.8696375054120457
  0.1111977438260415  0.8664646682005156  0.7453919518708482
  0.1039837960897945  0.8613249705217438  0.2338689571527680
  0.8621485238514732  0.6044843797331980  0.9904447832063201
  0.1141877802088697  0.1097511328540095  0.4900464102956346
  0.3608747129830374  0.1118088098569896  0.4942897370070635
  0.2364925899502576  0.8647205054611520  0.6183489696566740
  0.6151677826697398  0.9843686131926365  0.3653185609851451
  0.1068082122757886  0.6128627495690596  0.9920027950791815
  0.1140633440531438  0.6103534485681184  0.7409863617225140
  0.1087618337624831  0.1095709136716894  0.7409679264276112
  0.3613606064646249  0.9878855530867516  0.8684926509016380
  0.9904848464309656  0.4878535512483236  0.4902520358258955
  0.1058315413705623  0.7408356457610140  0.8700431587986303
  0.2358382047226510  0.6123112869429226  0.3622865196732433
  0.9849113006217438  0.9915257327763692  0.4956968658480569
  0.6100760808339819  0.4904478637540194  0.6190238443970615
  0.7335333399497931  0.6125390074739490  0.8678871786068217
  0.2378218996945038  0.9850192302727200  0.4926916609521152
  0.2340564007851983  0.6150344984895044  0.8686397409601830
