Cr Fe Mo Nb Ni Ti 
 1.0000000000000000
    14.4324500656286094    0.0000000000000000    0.0000000000000000
     0.0000000000000000   14.4324500656286094    0.0000000000000000
     0.0000000000000000    0.0000000000000000   14.4324500656286094
 Cr  Fe  Mo  Nb  Ni  Ti 
  56  13  26   8 145   5
Direct
  0.2303389128653720  0.6036620737114309  0.3585327706132929
  0.8663505887665087  0.7375327755520260  0.3593763926603047
  0.7373409690768741  0.4896873591503436  0.2364648070920759
  0.9777986084083145  0.8608288678690043  0.8783322674881352
  0.6145920443124491  0.3680321710704644  0.9904380829685004
  0.4879287945542840  0.4894304822618026  0.9933683089872568
  0.2349198392259256  0.3563409866303561  0.1198515763751477
  0.4847895367948512  0.3639589725567536  0.6123214461549574
  0.4890780702507215  0.4859016432707214  0.2366139621985204
  0.1098858273894007  0.2371719766830473  0.1139053546285328
  0.7537348816788391  0.8619988490577037  0.8749380044081352
  0.2356069526449512  0.8607230576230916  0.8662675054347638
  0.7332992149213732  0.9866287091948579  0.4850815422988596
  0.3607464097042714  0.1159745249149698  0.9925502002915748
  0.9766037103230537  0.9831013149338563  0.9975668190995173
  0.7402809898090652  0.2387139048895592  0.7418259797554759
  0.8594079745969486  0.3669651462004570  0.9892083102841432
  0.1106314732177818  0.3524270193046505  0.7396089444680212
  0.7372552700649193  0.7417446703120314  0.2370024438477357
  0.3627973481300821  0.7429057433889775  0.8694115652064949
  0.9858982772116228  0.6128927690527332  0.3650532374739193
  0.2359607058988495  0.7411799648117126  0.2341231506197949
  0.2356867255740809  0.4834594249814659  0.2385006710038357
  0.1106486975284667  0.1212897325408314  0.7403325849398604
  0.6169842825817398  0.1022406823034425  0.9913222140699205
  0.1118651496204685  0.2378502385065007  0.8663283942732356
  0.9930114344736254  0.6100961290717305  0.1187664153964933
  0.7391055899625908  0.6204745223904099  0.3549987605465625
  0.7375503295806771  0.2372894847403638  0.9864785312431560
  0.9809631275649247  0.1167581047542322  0.8718721230292176
  0.9859406453487617  0.4849744322125209  0.2317502717762819
  0.6239185443396479  0.9850008048673744  0.3543910725309686
  0.3595290707396825  0.9873568052734780  0.8728069289381938
  0.1088373268951708  0.1118900907189176  0.9846287730678565
  0.1074152002147941  0.4740822105520644  0.8660713706637849
  0.9837831711865643  0.3618211910950419  0.8650316325283844
  0.9833400700028339  0.2355986782534959  0.7400554679060550
  0.1121077353676642  0.9873580188142852  0.8761144582613388
  0.1053265761173693  0.6110214128052820  0.2410467764044198
  0.4883666696403881  0.3588961075544028  0.3631522383812518
  0.4875091614217382  0.9901652865746278  0.2398996307242278
  0.2359771107751578  0.2368179669565225  0.2321871467375320
  0.9839757141029977  0.7379469751742604  0.4865490951517162
  0.4857907108781179  0.6101300520159135  0.1163761092221092
  0.8662442055952373  0.4782722472643234  0.8674175996433534
  0.2334940675174544  0.2326097915137391  0.7419105811630140
  0.1140336187493336  0.8595113461915640  0.9882250070774029
  0.3625912861024921  0.4843363100226338  0.6127991288023890
  0.3630248528306896  0.2343312709622848  0.1178936213161494
  0.8531434403905710  0.1153307812471052  0.4877237968444617
  0.6096051051674620  0.4859186099523372  0.6158627976029055
  0.7329410231987797  0.1110654758117422  0.3628336280206353
  0.7348098565077738  0.9837788883677089  0.2391006048828790
  0.7386311118296155  0.8573134901618722  0.3624696060842434
  0.1099605758421056  0.4805759346503901  0.1138620242993085
  0.9843333149479101  0.8630684128880037  0.0960869031400515
  0.9863310084514113  0.8614382026005697  0.6160372668458391
  0.3590517960012506  0.8647572096163776  0.2392398288034288
  0.2349875277675743  0.4818956477214789  0.4881843038318243
  0.3661366835792823  0.3638659090684270  0.4883044262271691
  0.4848563724571534  0.2406485590519816  0.4863711616644362
  0.4854051710203248  0.2388636204751057  0.7422798173906092
  0.4897567477962130  0.6065786615227178  0.6154429354793031
  0.8658917988207070  0.7382518346777045  0.8724453441453932
  0.1089506452816519  0.8623268020951872  0.4898592049563428
  0.6105061330561817  0.8592487512148069  0.7449192986479076
  0.8577478383467990  0.2344922754892706  0.6140999053812344
  0.8606572720498624  0.9811278082297655  0.8748062870281436
  0.9808147023044318  0.2327296185956623  0.4918682066728691
  0.1102901093962103  0.7436064883114795  0.3615490963066792
  0.8620728824018521  0.4949816236730932  0.3607461987182056
  0.3616465706395118  0.3600162842682754  0.9907859903538464
  0.3604895401941699  0.6008857681060646  0.4839074285711727
  0.9868519595707851  0.6071950793917524  0.8643736200987833
  0.8638352145872037  0.7415747285618740  0.6137754856642557
  0.9822029098120491  0.3567910669474193  0.3636628163354882
  0.2320409773826976  0.9874248670742336  0.7450011601808727
  0.2360337806539266  0.3663466818905950  0.3576871418293980
  0.2353103562790771  0.9868722001841805  0.2342388809556475
  0.2331438725769089  0.6063262642080783  0.1188886398714888
  0.1078187119772175  0.7412837408014297  0.6115695230467697
  0.6146536074842602  0.2356567474608944  0.1094522404117782
  0.7369373038689481  0.6115395048241140  0.1169590762976462
  0.3567152159223885  0.7382672510690932  0.3588417930569703
  0.6108384189617168  0.7409011286176942  0.6186999057483783
  0.4793618782049563  0.8656914705801781  0.1224776062533977
  0.4851884129102756  0.6132246720373518  0.8650556156501102
  0.6102317323510347  0.6116201185064030  0.4849270144582467
  0.1134963225341947  0.4815017270180829  0.6149688076468168
  0.6080988577478050  0.2380426262975782  0.6167808278338934
  0.9884810264106274  0.9898273681613965  0.7475565943363037
  0.4870696010922891  0.9852798484314279  0.7426508525463951
  0.8544892980034909  0.2345375777501245  0.1120115849171616
  0.3616930659702549  0.3621522415110909  0.7401916131384627
  0.6122819507770166  0.2356817316276465  0.8665583278279713
  0.8593291162512114  0.4850078540165590  0.6141482267019469
  0.6201381244259029  0.8655833949956931  0.9938493009580407
  0.2371732030388264  0.2352337770571976  0.4892362196256083
  0.9769868635804640  0.9905743032540124  0.2270624953510478
  0.3621644186688820  0.7391755115044061  0.6174391270208610
  0.7363625438079474  0.9849508595574401  0.7398174339761546
  0.8087726297421595  0.9323619560577687  0.0563041148368046
  0.4883753305287616  0.9859290740098648  0.4861167623340323
  0.4873512173109127  0.2351464783174164  0.9901071470004486
  0.6110487083514119  0.9884776216019073  0.8665929449302189
  0.7400728523984687  0.1016534345046919  0.1144497795980016
  0.4885502869560329  0.2377686763428593  0.2367774086085683
  0.9869049268304093  0.6119342985357520  0.6140178853989396
  0.4875916245614132  0.3632201192668465  0.8671569315558864
  0.3613737901045329  0.6080178196736836  0.2389975936708053
  0.6110567769680086  0.3629254351130056  0.2376092664993993
  0.6120326791248619  0.6120400928451047  0.7384687041659027
  0.2332918774505609  0.7364661900241601  0.4887799631243677
  0.4836967713748593  0.9892110469042358  0.9908651549912575
  0.7348418500469565  0.2368327571310920  0.4902592066727062
  0.2344440815264648  0.8673400655441631  0.3647019228012707
  0.7409828690856651  0.1098420011240037  0.8671072060587649
  0.9883606065910798  0.4845309243365036  0.9930575333840421
  0.3668105545450155  0.4830087934259928  0.3586923086275317
  0.4866202411740255  0.7389399199329713  0.4856633046404842
  0.8626589531107427  0.9877097405530428  0.6110601358985220
  0.2364242215758920  0.1141363229169869  0.8698444076225106
  0.6095795983280033  0.4879183031370939  0.1148946919142079
  0.6113018426588348  0.3658533272001309  0.7416762223947820
  0.2380034522454451  0.9887794325481268  0.9905640129658480
  0.6147686043496964  0.9881732816984162  0.1182964886279291
  0.9828739996673846  0.2350289092707211  0.2356602969773029
  0.8570336316699744  0.1072017021921169  0.9907850631032147
  0.1098336738811771  0.9888765901464527  0.6156668549741471
  0.3610640462389569  0.8633390820378333  0.7428356984954089
  0.7370740412182436  0.8627384413712137  0.6098632973304929
  0.8586411659014466  0.3574169331526375  0.4908459338486095
  0.6121496848306661  0.9872521046194410  0.6123549502846781
  0.8655472098950714  0.8596979475803703  0.7423549798103382
  0.6111691922090199  0.4881785432654581  0.8679761865128973
  0.2355614200624681  0.1111054847485675  0.3593434253556979
  0.4875116389145637  0.7373931840855726  0.7437938248237890
  0.7381462070656685  0.3650614922803160  0.8639209747874359
  0.8668970990567239  0.6176112807504307  0.2316959326045328
  0.3661440274382024  0.3608977475980823  0.2368122018235994
  0.9855371276393563  0.3585886515575215  0.1131259446320583
  0.9834526854561136  0.1124126198039928  0.3638789691683425
  0.6098092517206366  0.1121719106683610  0.7402553683413503
  0.4865091437529945  0.1098401250319755  0.1130354327067144
  0.3613163874524394  0.9891418225202633  0.3596862310400119
  0.2344980937656059  0.4852750895059035  0.7401417324592715
  0.8597642237782525  0.2375042757802165  0.8664224841091208
  0.4872348885449247  0.6100597428188008  0.3602957306622622
  0.1085357320769779  0.2340054980452038  0.6154821565598839
  0.3582279476429951  0.8630282161277000  0.4873720574515061
  0.7353648168244368  0.1118621041898448  0.6135709746049417
  0.4856529443817085  0.8628579654435127  0.8687569534628372
  0.3609263244427027  0.6090582123145557  0.7392243267966889
  0.2375504668600136  0.3593351753459246  0.6150780976464527
  0.1061110565357029  0.3594144312071680  0.2380370169541470
  0.6099516298146710  0.6147348330865311  0.9926472725745882
  0.7351864625865101  0.4878368032710574  0.7418238636664053
  0.2349533447152645  0.3601178801092966  0.8657503473220473
  0.8606104780619979  0.8639342506614068  0.4861398286728371
  0.2345568053133422  0.1147299611533615  0.1118158559976693
  0.4880645454685243  0.4885672111204254  0.7407245174153324
  0.2340470128486401  0.7361180829282467  0.7435286621751374
  0.4846677027012640  0.1114520503956797  0.8670504963536193
  0.1123537443711900  0.9898300740220420  0.1074335508763790
  0.3600821446480077  0.8612373030433100  0.9911135736677914
  0.4876072684102710  0.1129196416324670  0.3612555812374422
  0.6084265929811429  0.7340806105676061  0.1171067790273427
  0.4894764104561458  0.4827811710196934  0.4857938962826323
  0.1088207247655978  0.9890861268209415  0.3585658873463545
  0.6119164615695913  0.8598675383969054  0.2347199592030885
  0.3605643308427324  0.9886844311690800  0.6165878419194092
  0.4880291564558568  0.3616705992670214  0.1133177191123298
  0.9841725622369336  0.1123418260009970  0.6149157965796058
  0.8588350387406941  0.6154133951020366  0.4885360670221016
  0.3615903577037483  0.2340809993529379  0.8669361627764288
  0.6111250007023686  0.1131671261019611  0.2386131192897766
  0.8619804498711340  0.6135193697963434  0.7415926835998833
  0.7340640274083277  0.4875973585594917  0.4882850050241875
  0.4873284697003388  0.8632939133996027  0.3588958270927854
  0.9850600736860096  0.7402543670165248  0.2333901647584832
  0.6110076199073020  0.7391333473503885  0.3588323481358705
  0.1085645778959464  0.8647700611758540  0.2319222883675784
  0.1069993656596300  0.1113244725017641  0.4875809293045148
  0.4853360044602041  0.7335990115185356  0.2382801726130190
  0.7355482708531215  0.3663435459304858  0.1153841349788684
  0.1107857880169270  0.6095266553971269  0.9909603410037549
  0.9854794738923915  0.3556120768684408  0.6141583584291879
  0.8631298179484435  0.4864177425929210  0.1143001086969986
  0.8584487120359051  0.8626559751805498  0.2310625014468444
  0.7336574585496531  0.2356250313243856  0.2385504864897937
  0.2366945692483254  0.7349862297322867  0.9907420715909068
  0.1084311701007871  0.8584458964752794  0.7449481242639202
  0.3642826848400914  0.1125890250855020  0.4870979442894688
  0.9859981504651842  0.7364412787434674  0.7425523808659451
  0.2373929665120103  0.1122593783581232  0.6159394489299911
  0.3619023482204671  0.1123953157954865  0.2386159506003450
  0.7346653054201023  0.6142723676499796  0.6166094144219426
  0.3615669011221391  0.6101546272217435  0.9928702631804276
  0.9869429817341064  0.4873563379738746  0.4902162235020329
  0.9858841823353678  0.1158022275379771  0.1070824798257054
  0.3635564968948138  0.2355226335293891  0.3591249585327438
  0.2338925079944286  0.4820088922266573  0.9903046588652371
  0.6107545192549194  0.3639312822546428  0.4892049435486754
  0.1094963299126521  0.6098962953466037  0.7387518185856848
  0.1085359928807824  0.2323018494186573  0.3608761845916024
  0.6136317399569555  0.7386527611851393  0.8674922252884824
  0.8611482749461951  0.1142835303373286  0.7395259759331202
  0.4851015365551626  0.7357062361226063  0.9930569240347235
  0.8606863096948215  0.3595657815308561  0.7401990130631516
  0.4871725630618340  0.8634842555891444  0.6154940952073701
  0.1066288069403912  0.3593804231378993  0.4888824273472491
  0.7368715320176280  0.4878724169130124  0.9900682790539431
  0.8649639538676500  0.6100539446032953  0.9924766749525987
  0.3613762530903994  0.4871472407243750  0.8671828740671257
  0.1100914180736107  0.1145663624239163  0.2358868845134315
  0.8546805737604737  0.9861352651936043  0.3615587253793133
  0.3614606971241481  0.1128771744120160  0.7413443161557396
  0.3592242885454888  0.9919732468522753  0.1127737199687921
  0.9896719340957821  0.7308496740948921  0.9918160212575631
  0.1105363826423489  0.7378033433915776  0.1137897440953843
  0.7336545012225402  0.3607644064701206  0.6150548899399310
  0.1055779781220843  0.4851569618640226  0.3634780592128530
  0.2335871901113636  0.8644957213953430  0.6144624100092732
  0.8557882048077353  0.1130300626908059  0.2407755778642284
  0.1113315007165789  0.6089819318211364  0.4876469353278022
  0.8632578086318954  0.7425024849190189  0.1097216379248259
  0.9828022391794441  0.8644516727792887  0.3600326039727527
  0.4848312688469011  0.1131922526126994  0.6167306923482464
  0.6137285683101652  0.8586728534778332  0.4864962269921735
  0.9834530456239702  0.2404677967280270  0.9884826745574038
  0.3605557978672264  0.7351268425939956  0.1158303665344554
  0.2369755411588430  0.8633086424162806  0.1119605424459588
  0.8598426616563998  0.2331338669976273  0.3621170299874606
  0.2337221799477462  0.2364413789442226  0.9905597883393207
  0.3651746402387493  0.2346663599207406  0.6148184515909276
  0.7422260334108818  0.7394839732198311  0.9960906050038187
  0.6112678743447109  0.6117773269336507  0.2399749523258573
  0.6086139412389806  0.2354019308885300  0.3642938110225968
  0.1103545496867167  0.7376869937416208  0.8680676801614398
  0.7397394581272057  0.7405293094974083  0.7434772511024667
  0.9869387702492818  0.4839016140587635  0.7389722669954158
  0.6121078288335898  0.4866987861505228  0.3591888777748647
  0.2345348873968995  0.6088121033543578  0.6150327087058058
  0.8592954110379004  0.3602964149358027  0.2351446408354019
  0.6121744127508930  0.1134365348369681  0.4876865966739293
  0.1103325581975368  0.3588734746964168  0.9913217416044309
  0.7394268674425931  0.7369322774536856  0.4859490959345396
  0.3628793590059706  0.4847648299694193  0.1165539531120084
  0.7332004602156784  0.3554898895322038  0.3642189618545466
  0.7358569116161860  0.6152382056920160  0.8671765753966326
  0.2355210911261539  0.9909064635740039  0.4884742830717668
  0.9868481131614647  0.9841075923944170  0.4859697727584223
  0.2344866307740499  0.6103491341411708  0.8649556767481029
