Cr Fe Mo Nb Ni Ti 
 1.0000000000000000
    14.4324500656286094    0.0000000000000000    0.0000000000000000
     0.0000000000000000   14.4324500656286094    0.0000000000000000
     0.0000000000000000    0.0000000000000000   14.4324500656286094
 Cr  Fe  Mo  Nb  Ni  Ti 
  56  13  26   8 145   5
Direct
  0.9862996463914597  0.4889187671355673  0.2316837283505515
  0.7334421330053994  0.6165675201290162  0.3603784864954932
  0.3613868276670490  0.1148642217683368  0.9922810094197941
  0.9814960047699797  0.9830079164191304  0.7448536762038781
  0.4832853175275749  0.7301597820645187  0.2389662900467356
  0.3626616062441397  0.8589537285938824  0.9930853662498983
  0.1126152023488356  0.1117960818446730  0.9880699994694414
  0.4838540720566885  0.2297610548641216  0.7355117873306942
  0.3608184783693275  0.4873620025838459  0.1137989422956559
  0.9808784649960329  0.9963399069472622  0.9968034161355226
  0.9787133543141693  0.7301457060466193  0.9917334709874184
  0.6113336243475809  0.3632018897064148  0.9872805143480644
  0.2419841774422262  0.7392236215329306  0.2417062870308006
  0.6125579052704606  0.1152642823818231  0.4877471906714834
  0.9775201474011732  0.8639064757633867  0.0893364531731795
  0.4888376136585805  0.2403557318588451  0.2415495833643150
  0.4851651497026478  0.1140980653041468  0.1228372433517599
  0.3594337657062981  0.7375325571896593  0.1144456263664515
  0.4878270679659316  0.6126315316209777  0.3663818230063720
  0.3619300941890579  0.2289330752543244  0.8669289705255785
  0.8603731201098421  0.4809688944135503  0.1176163055158176
  0.3636165801943065  0.2334151906765846  0.6135065616406883
  0.6070062655692258  0.2428864597810741  0.8590628971662652
  0.2364374274226314  0.9886865066153722  0.9884879892396292
  0.9886421248780344  0.2440174085832170  0.2411652716871252
  0.1036290819473077  0.8704145658851481  0.7462079227965214
  0.8714335375224863  0.7356359155730615  0.1233953901350028
  0.7373709972499873  0.6075978938000215  0.1196970370052494
  0.6063525201446167  0.1120299068061892  0.2346120455229107
  0.8615369727907033  0.4893205875644381  0.6046574014596967
  0.9854651533498319  0.4865958115157242  0.4966707258142516
  0.4819810956643990  0.6108161636430911  0.1174078459173889
  0.3616479517638818  0.8629576936587352  0.7429885281932882
  0.4867969093144551  0.1161443270292117  0.6126625780770045
  0.9882564490366562  0.2427396534776884  0.9861961825067965
  0.1161274892285280  0.8672757073513592  0.9861742080115090
  0.8640620966725469  0.3661289233718477  0.9882920873091967
  0.9884851710963025  0.6057799203924902  0.1137004403307255
  0.9887048745356426  0.4786749184607747  0.9922271342136940
  0.4898044463482937  0.1162267088234559  0.3596220466051386
  0.9841959051433549  0.7360593097647945  0.2398227553831612
  0.4809914018285515  0.8609817169443064  0.1216024235481504
  0.1122239933706219  0.3609942080368994  0.7374229446020348
  0.1047913718120243  0.3639713411069909  0.2367377459944624
  0.6091489451807359  0.3647429912325636  0.2421313740084878
  0.2357673620646905  0.2365076416791194  0.9866219500811195
  0.6145852962170185  0.8586884919118810  0.2292458030328887
  0.8629445871845632  0.3601367335405476  0.2405871176228168
  0.4888837999839913  0.3606614558846839  0.8735664620644358
  0.8582968537450320  0.7367049473376679  0.3553592042153343
  0.4898146852290265  0.8481223952655631  0.3494556528215794
  0.7352488338603899  0.8544483302867754  0.3550961762306755
  0.1120088802808663  0.3609702936498895  0.9923864601432101
  0.1092070166687459  0.4827293685086831  0.6181372110733448
  0.6140446400491683  0.7311739711286147  0.3611994429119786
  0.7302866437682881  0.7377153218796176  0.2221457222332645
  0.1108718143452198  0.7383465755604701  0.3610308617912484
  0.3635271132748233  0.9872260229467060  0.3574527603014984
  0.3599324068576592  0.8603278908657757  0.2414645437217575
  0.8610064867318341  0.3608478803385677  0.4915674337368539
  0.9928976746767988  0.3618184626941996  0.1148201958068483
  0.6125174536842550  0.4944433873901205  0.6136906105806852
  0.1100231577437355  0.9877664372081073  0.8696416191730715
  0.7366535894002679  0.6103343361337297  0.6114755127436612
  0.6032554133263203  0.7295725257084357  0.1165724708283456
  0.9873621375611903  0.3563383808499724  0.3653272595000381
  0.6123241043194743  0.6103166719027610  0.4872607261926046
  0.2303832096079602  0.7356906235157074  0.4844559636320208
  0.8604632342965659  0.6101070375433744  0.2378269789346553
  0.9859654169830200  0.6097733869700355  0.8629721628921823
  0.2392294925740422  0.9851212351344977  0.2405006149602430
  0.2377094883196930  0.2360427488037999  0.4926880247738144
  0.6100419191921032  0.3635647807574998  0.7369614945205243
  0.3590782350651581  0.9864817779800564  0.8673252006779302
  0.8651109926583845  0.4837965642929227  0.3637920736117509
  0.9820101657926531  0.2385999815542249  0.4885571585769376
  0.3627962429743747  0.4869112950251234  0.6146540385284727
  0.1034095614667037  0.4838833987622391  0.3639564021999240
  0.8598980176247728  0.7354720782821090  0.6148687873474156
  0.1069636988683441  0.1063396414467818  0.7409171745728333
  0.1105673758689173  0.7424550295532574  0.6154141608749819
  0.4858950081718683  0.3590861405572798  0.1129506734187357
  0.6146290301091812  0.8615649029352396  0.9995574383887786
  0.8586645561288792  0.2394876565407550  0.1152899221214538
  0.7322755961361804  0.9839840015546066  0.4883533109728302
  0.2372943725671116  0.6088078433523475  0.1152242241459066
  0.7523878469904576  0.7493963259158692  0.0107635432760188
  0.1102082700391120  0.7413213163877169  0.1122770904016198
  0.2362490069073412  0.4885812670320081  0.4901913918080547
  0.3653300161677468  0.3583318122010528  0.7479628053769068
  0.4877867586175426  0.6145761756318232  0.8649690207152436
  0.4913291434011957  0.9856206997725059  0.7399036921503904
  0.7329012006956469  0.1138865743752393  0.3584948854152670
  0.6135237838165560  0.7336327885353893  0.6125763806655686
  0.9657481329490063  0.8631996779356433  0.8844209621867358
  0.8600679971447194  0.3601744332503826  0.7397486715708129
  0.6236697874629248  0.1047656352572806  0.9902037887505613
  0.2399283771958223  0.2375728977705261  0.2382973094266060
  0.9776460400672730  0.9849201692405882  0.2277413415220817
  0.3582581572409043  0.7373941897926261  0.6141896477531338
  0.7379372846793247  0.9882202355719483  0.7416402361927481
  0.7998722201679104  0.9370070286325201  0.0626455617952186
  0.4853861856752555  0.9799862246989238  0.4850853019284838
  0.2381462726052394  0.8647598441032049  0.1135050457730742
  0.3608015427457525  0.6144630260692400  0.4854625476866110
  0.4883725434751975  0.2322169874933205  0.9900976068880637
  0.2334940836089565  0.9844291749088089  0.7409259967042399
  0.7306865239551368  0.2430266288524124  0.2387159431889306
  0.7395950816102348  0.1204503016000684  0.8631898625907541
  0.9864598834955425  0.6122198649151778  0.6139932814431359
  0.6133873569024229  0.9834340879387540  0.8664788438544100
  0.4851329869757837  0.3638725655005647  0.3636087149378120
  0.3616140946454375  0.9879249652548833  0.1147541656111835
  0.6111433736323745  0.6128125692672127  0.7398142631663643
  0.1106618124057324  0.2369109856447663  0.8651001022419770
  0.4850261587245975  0.9872564846231663  0.9938796432725162
  0.6113660681431735  0.4892195161345371  0.3622511121019544
  0.1071683306362279  0.9862253978332166  0.6159920932836163
  0.4877552572251618  0.6117970736595847  0.6125545529742961
  0.6102821609387624  0.6090557527523784  0.2384228981873304
  0.3618301177533917  0.1113859139565921  0.4862662030040790
  0.7355795053807752  0.2431209449892583  0.9885482415399182
  0.8597325187856650  0.2382098714543157  0.3623691644306855
  0.3623128903028585  0.3650972904439090  0.2417743958104344
  0.6100792719402519  0.4864426989733174  0.8674450528674330
  0.7356591192530840  0.4888520759943423  0.7369496854395403
  0.1117425251759312  0.2361529476465775  0.1117518140848756
  0.7379049932060074  0.7339664852594453  0.4837948488092387
  0.6125980891785491  0.6135232912393740  0.9925884388450449
  0.7452461699031931  0.8640135459592314  0.8730925488176017
  0.2325562219335750  0.8654663291483827  0.6165856686511711
  0.9833058159531743  0.1137191081350695  0.8680057709301126
  0.4874478538189749  0.4892023334857111  0.2400941586124360
  0.8618016935207620  0.6045565628196978  0.9941590716265156
  0.7347621869047836  0.3624847699073153  0.8666793700513618
  0.7381388846447031  0.9822167976299961  0.2345781260810141
  0.7343214251183739  0.2367193598615022  0.7381406970105050
  0.1103251396516595  0.6122279181979352  0.2419456813173552
  0.1088462844289674  0.9894546534622221  0.3612636186708605
  0.6140052369031804  0.8553179993304596  0.4848009676162810
  0.3610199679140871  0.6114483438540768  0.7411248637440607
  0.8578583256617230  0.9847682429619981  0.3610345479613257
  0.6128467339200708  0.9854338254752353  0.6137122555067621
  0.2331298319852395  0.3590060836022302  0.8633390074763707
  0.3633782718787101  0.3597977158227665  0.4891175855902686
  0.2344991784609433  0.4861662232075932  0.7389424790289185
  0.8653043724135888  0.1133011701343181  0.7392572697664181
  0.3593942352215379  0.3601292963179028  0.9864119067609338
  0.4901961967128637  0.8597897885003071  0.8697497964250149
  0.3619212325320156  0.2365109435312358  0.1121674117094623
  0.7368772408235655  0.8584391851546568  0.6120429135943082
  0.6140776371975919  0.8575398703177709  0.7412400634374144
  0.3606325087727154  0.6089809559980838  0.2436687399685348
  0.2350200341009108  0.3585515323674761  0.6163162690361701
  0.2356777047398908  0.1106566838289305  0.3655188571570779
  0.1129851580572461  0.9883895289432547  0.1113269595467880
  0.2370657183685758  0.3630863951265711  0.1127028374390765
  0.2377790926801324  0.7394667927466478  0.9863605331974054
  0.4853866817980138  0.9850246750021130  0.2393542221803349
  0.1102074079580093  0.1110329931963333  0.4887958396672676
  0.3602011004359899  0.7359534978850492  0.3632984249859383
  0.7332495701010383  0.3647467631293645  0.1153474219264755
  0.8600942218948220  0.1104189759454899  0.4860953007696911
  0.2370937444574143  0.4841492502322811  0.9855573443674733
  0.1102187928497585  0.2340740685500081  0.6149361336285355
  0.2356247571255439  0.4838938176663689  0.2418332423851151
  0.8598403409251614  0.8599869061249222  0.7397733174915552
  0.2345590387148602  0.6138166582478130  0.3629308005891225
  0.2320153511841334  0.7405059172744712  0.7426494830923653
  0.4863304688364803  0.3612568471876042  0.6119919638374584
  0.4887049725598492  0.7362553021653714  0.4840905276523570
  0.1096514978076494  0.1127135462148861  0.2392701713049330
  0.4868301788743917  0.2349474584808259  0.4886935719712157
  0.3581668757433907  0.8576677881644208  0.4831487896142242
  0.6100886730915609  0.9819083225852581  0.3544586974459688
  0.4889535138276491  0.8596320434258555  0.6153252677930299
  0.8615951788158099  0.6079332833616837  0.7354351089413940
  0.1103298098007378  0.6076488905974442  0.9873809502884878
  0.3615196257276626  0.4861594829767754  0.3648328219077759
  0.2333623057062678  0.8614477584431433  0.8630538030352196
  0.1073431443530403  0.7417044261863224  0.8673343803147203
  0.4859044811598499  0.7352935816321551  0.9923979589365144
  0.1112126520588535  0.2348052302820690  0.3651244269790366
  0.3625052146396553  0.4870793554575391  0.8674830457625087
  0.8631479200404458  0.2371251519241637  0.8681676340720906
  0.7378333840202169  0.1090546755874334  0.1211175225336646
  0.2365723098904602  0.3598630653973749  0.3670493584811285
  0.4882997418472014  0.4902817626560944  0.7413869910998439
  0.2358583847256108  0.1095516663962683  0.6159411050963985
  0.2365284684037365  0.2354819938818548  0.7397140221892242
  0.3604975536415962  0.9854954078458925  0.6177379811035688
  0.6095901334210039  0.4890667988662573  0.1137935282132348
  0.9841980586156207  0.1110128914764382  0.6146363139043903
  0.8618126589701329  0.4854618371088192  0.8666774652268980
  0.8575305562534207  0.9963085893765454  0.8717219002613890
  0.3590082659155522  0.1113464365880322  0.7383147228702414
  0.1105803413398796  0.3596882281230774  0.4920438759651735
  0.3646090279600043  0.2362991876949498  0.3658386326556985
  0.8594984011152669  0.2332543601571235  0.6125101689005993
  0.3628054251591112  0.6130452949290265  0.9897532234207381
  0.7364357424103343  0.1139867750018403  0.6118568169378580
  0.9877148037438572  0.3592300047252742  0.6145130623161597
  0.7348506341066966  0.4853694676052768  0.9914227761049751
  0.1105201966674509  0.4820772460194124  0.8635203502102493
  0.9843442010243884  0.7375496930250672  0.4873332885790961
  0.8559672423049705  0.1107596467773212  0.9953230248564446
  0.3640580806203975  0.1123502592305022  0.2403142064540966
  0.6155934538881950  0.7390954012503935  0.8688492427815165
  0.7374415787913877  0.3613868222011147  0.3638559621398695
  0.3626266229955797  0.7413507863730255  0.8655871569638409
  0.4871366798564616  0.7370577739761479  0.7425851395770724
  0.9899678187663894  0.3607881281764724  0.8649636339200925
  0.8617446109099107  0.9883350629309189  0.6135095683880120
  0.6127732729210321  0.2353786052740718  0.6130316005960560
  0.9898449020621928  0.1197903375258850  0.1126279174986421
  0.2311786350843580  0.6115003817934089  0.6167291339152066
  0.1088331650630059  0.8614926729238325  0.4856977532361429
  0.6115851795799704  0.1148848889507393  0.7403956344412599
  0.1099965505662974  0.6129955628580784  0.7383570992749984
  0.2339118256394998  0.8616362576845098  0.3646075218378532
  0.9834039256547549  0.8633529381742319  0.6152198802395721
  0.2334848561260832  0.1128152229637035  0.8630826304031071
  0.8617917578239237  0.6153361994047862  0.4858278372937413
  0.4891601966253989  0.1122694360951919  0.8654798660726311
  0.8624500823839567  0.1152521371762763  0.2393315708544235
  0.8560841528481877  0.7292288713079279  0.8631905299178750
  0.9856372621448459  0.8601558113476638  0.3617950720598997
  0.6115728857419083  0.9863304916030083  0.1185834384760151
  0.7343379815283499  0.4858639950744280  0.2398092467520380
  0.7366188130059753  0.2385054188070657  0.4875613209591724
  0.1109742821623738  0.8631163733798659  0.2404836108570443
  0.8599759627592284  0.8586523927542782  0.4853523781908948
  0.7369542072060037  0.7347603214424212  0.7401623534835277
  0.1081418160386285  0.6139987410633755  0.4904796875546519
  0.4866970282750466  0.4893314603631816  0.4891792717196898
  0.4862699097692799  0.4900479225745242  0.9897445747757092
  0.1133880744199326  0.4856368029678069  0.1134634666988852
  0.6103820913954945  0.2391556876647559  0.3632704980635349
  0.9859665477165802  0.6157737754682284  0.3648133461105367
  0.7358854283019554  0.4895745728254504  0.4875049613750334
  0.9874041389642357  0.4868872048546923  0.7372290008420236
  0.8583020992181331  0.8616817388948016  0.2337894091322465
  0.6151608533227055  0.2376209905193786  0.1136676030673799
  0.9895404631386853  0.2369174375716122  0.7405716426146612
  0.2353101921553812  0.1105712441361098  0.1111670903884694
  0.9850678962689846  0.7379164044503811  0.7419391776088943
  0.9853751300239416  0.1133954915465705  0.3619417615935268
  0.7367813460289014  0.3627094668025027  0.6102489201319027
  0.6104060401782310  0.3628970588014475  0.4863723080702723
  0.7346050078526408  0.6084833456662855  0.8646565204101874
  0.2375321236572004  0.9854057370211012  0.4890474602818041
  0.9831414007781303  0.9871009623826277  0.4874058972799158
  0.2351871882809020  0.6122417488189031  0.8635380277964591
