Cr Fe Mo Nb Ni Ti 
 1.0000000000000000
    14.4324500656286094    0.0000000000000000    0.0000000000000000
     0.0000000000000000   14.4324500656286094    0.0000000000000000
     0.0000000000000000    0.0000000000000000   14.4324500656286094
 Cr  Fe  Mo  Nb  Ni  Ti 
  56  13  26   8 145   5
Direct
  0.7348178490523433  0.4912331510037552  0.4900074177324338
  0.3637731937501830  0.3662895768341339  0.7419649592204715
  0.9877735358982125  0.2359891822968268  0.7375900934586463
  0.1044418050752795  0.2388399716414316  0.3733933506217184
  0.8645567444761768  0.4905184543495107  0.1134456832598006
  0.3628287960402267  0.4834472979744979  0.6178951704531279
  0.3604767864345233  0.3669749989452918  0.4880490845667296
  0.8701230253405468  0.1151908658814143  0.7360347441110133
  0.9889216599700037  0.2409579320224533  0.4885677786839980
  0.8543148476119257  0.8521331544104136  0.4937320327217218
  0.4883762570485686  0.6060946265055541  0.3645063464794848
  0.9860896753222373  0.2472256920859734  0.9853257864821312
  0.4937902763948438  0.7375185236336165  0.2353283838317957
  0.2355489832016744  0.1168503859242099  0.8635510217651911
  0.2364499726733049  0.2421246432441276  0.9881988765024745
  0.6116480844323449  0.2391829182972346  0.3593929926997379
  0.4936429763623515  0.9869260306979460  0.9907660262022259
  0.1005667418650808  0.8653891297797891  0.2405527060944168
  0.2343112344158121  0.4906871045467443  0.2377467130754447
  0.7376090293897131  0.1152255076989570  0.8599120251366875
  0.9863360034881001  0.3663473529263295  0.8719566653325773
  0.9920105037645777  0.1156732215876599  0.8609611068443133
  0.7359262380216944  0.9783658985420486  0.4966009841805216
  0.3659444942036374  0.7389152746755395  0.1155481841269052
  0.9882024669150243  0.7337545236914713  0.2426115992300674
  0.4861360821058522  0.4841678452725106  0.9915870427634211
  0.1043007064372153  0.9777075900480557  0.1175230019620852
  0.9840981837094119  0.4991988457871652  0.7402722603297325
  0.2369492350860677  0.8578013928248384  0.1118118157865347
  0.4883370961367087  0.2349370646126084  0.2317814246067529
  0.7355634992074261  0.9910575839282677  0.7417732759408712
  0.8635182014566696  0.3662227634878091  0.9861976937637231
  0.8619384230942631  0.8635228137991126  0.7285346655268001
  0.9891447049187250  0.4880211801439184  0.4945852420214769
  0.8694174047123909  0.0033141987295296  0.8530922862987242
  0.4889947897925543  0.8629682340367822  0.8710531446797080
  0.4911468256243921  0.2404847872495592  0.9928463882387727
  0.1028895957998684  0.9887824536172897  0.8699422499007896
  0.7321274073309721  0.7313171484597759  0.2423976654859267
  0.8536295141220301  0.7255259291703370  0.1273917353499081
  0.4831711530650538  0.6160249736415594  0.1188656976419016
  0.6131645197462250  0.8623677658535581  0.9962840500139383
  0.1133759735072955  0.3650743425922051  0.4892687252499859
  0.3613519753347103  0.6042576492524800  0.2364962304184215
  0.7354695877050547  0.4898982040878120  0.2415490548663281
  0.6085654459341681  0.7344786715490795  0.3607205325177142
  0.4869148852088604  0.3597714044858898  0.1158218481136733
  0.1139702877326104  0.6092006646006004  0.7441864242378791
  0.1082475893256397  0.1224756124127862  0.7355487826683406
  0.9872855268051528  0.6059043086056136  0.8632909315991842
  0.1130298877448009  0.2367202370090707  0.6031499046485302
  0.1069495217524422  0.3597531151244214  0.9894865626193280
  0.8623797213947546  0.3681751989010945  0.2403614833005880
  0.7358066013487657  0.8684790021087812  0.6177697151022938
  0.4885853084891656  0.1146014674832370  0.1101675621751748
  0.7466231707508856  0.9970016247274405  0.9820479880167564
  0.8610057589479861  0.4892967889959813  0.6144388568503754
  0.8575316155963661  0.7317722268843788  0.3682770737678254
  0.9789684467630623  0.1171634079523545  0.1102156536620331
  0.3605137442171739  0.4892920400423147  0.3633660336699848
  0.8634143639443842  0.6068079927493889  0.7364145698539294
  0.9741610430233832  0.8542255725427373  0.1274773737895459
  0.2392448868605205  0.4872071789020605  0.4910349445902344
  0.7354709052255769  0.6044160618922245  0.1183777085616365
  0.1124096488753337  0.6104959877520860  0.2373793822879821
  0.7357923875665555  0.6125714092998574  0.3640633962717097
  0.2351183792023648  0.6152577702547637  0.1194158704149140
  0.6174536449373363  0.8606278938893966  0.2372705207281633
  0.1073886578109770  0.3669493652080382  0.2392687323673209
  0.9802465701706792  0.8618290048007498  0.8570417464447982
  0.6110115405104588  0.7361256744444384  0.6172969521712113
  0.8609030033272025  0.7300222863681370  0.6152083746733998
  0.4869466091994050  0.9868560845079812  0.7462030705531782
  0.3577174421330104  0.1113377159942349  0.9925768812022943
  0.2311871051378305  0.9917575852374457  0.7420041632132187
  0.7374219050108463  0.1129033984850340  0.6155013320361513
  0.9879790654598494  0.6107482539923178  0.3653949267028477
  0.9831389357921385  0.2369077876148372  0.2391211583852377
  0.2332178143156055  0.9809744402472947  0.2387093718294906
  0.7824150442062848  0.8845393412877594  0.0944153955793333
  0.7379777985349842  0.3659179001500770  0.1123181241275961
  0.1058946806465237  0.1081753560188583  0.9949537678674176
  0.1143847771597107  0.7356024215828629  0.6137358359981812
  0.3623596191710864  0.2391793901625741  0.6164713990982086
  0.8590710932044497  0.3677562268134836  0.4897181763362108
  0.4923536306504034  0.9878247516345618  0.2373450904004810
  0.2298117209942833  0.7396174496017343  0.2391080181515456
  0.3669081712863931  0.7333568914986989  0.3622138230128701
  0.4849416670504538  0.3608567091925987  0.3595107250226131
  0.4881763487046474  0.6104324633521677  0.8694670495962462
  0.9415766991246804  0.9665412925181968  0.0094661656081303
  0.9651271407709788  0.7483798377346002  0.9977939126956648
  0.8644208938343750  0.3660802453354487  0.7414377464465612
  0.2332296503457409  0.8611333843402501  0.8704390171272567
  0.6129516236685513  0.3625082071336171  0.4933207955544641
  0.7599215433083130  0.1057966613661936  0.1228143461616522
  0.7531370565175372  0.8597748731158323  0.8752020148115872
  0.3617930936600253  0.7352097662882169  0.6165707426307960
  0.4875717665077390  0.9905046135308241  0.4892189268170785
  0.2328193426523825  0.2397434528454621  0.2413807119609583
  0.7504634141545171  0.1109420590615204  0.3591637823059927
  0.9433172629646814  0.0044893249094185  0.2240892355129069
  0.1149189561146971  0.3664125204799226  0.7423102763432189
  0.6104914946797272  0.2365912446999587  0.6167646383192075
  0.6167141742788825  0.7371877323149972  0.1156926701263148
  0.3622898759572475  0.8630432791940845  0.7440941092801298
  0.6127000431492456  0.4871188857430183  0.3619931961656353
  0.2345969701860496  0.6081642921586250  0.3656892497323461
  0.1104512095519033  0.4887035996486979  0.1129764827981532
  0.7319766941902769  0.7307332215732901  0.4893923500393940
  0.2363336526530468  0.1157544890825183  0.6126327186011519
  0.9888350025011616  0.3653899893618163  0.6134448390903757
  0.6119166712093772  0.4878111720594991  0.6171822681678534
  0.3631911478178453  0.3604469286939009  0.9926528500945561
  0.7386518999645659  0.2379485254419278  0.7404982256503710
  0.7324318175718803  0.8568270871705305  0.3689302740512008
  0.6150569289392983  0.2344610884344475  0.1147752332788617
  0.1140814106647922  0.2383903118440844  0.8657690048468184
  0.6148255447797475  0.1116759743000717  0.9917990352651520
  0.6098381038903210  0.6114121967758502  0.7421302192573610
  0.9859597223721501  0.4872028755524621  0.2389980889192761
  0.7338684139842879  0.4887448584788590  0.9903070484338032
  0.9890032990621375  0.1165174017844116  0.6120290005165251
  0.3628854081951561  0.2360048287456872  0.3640585132874917
  0.3622980957762486  0.9900928299600199  0.6180413784561174
  0.6200313023718990  0.9870832444175313  0.1140850760661438
  0.1079003826528235  0.7348415794972002  0.8678793375555446
  0.4866546956923087  0.6083187750938365  0.6161512446625415
  0.7369084520892279  0.3618075509654140  0.6171401369049426
  0.9872455315575853  0.3668034181539551  0.1132727516700380
  0.8598470247871062  0.6077425936648680  0.2425844783879883
  0.3634256092216853  0.8627400441225036  0.4888790745880048
  0.8601634255826519  0.4894050420769729  0.8681790136865351
  0.7338887345476374  0.6084552608500405  0.6161320724766381
  0.2336347824339202  0.1103494295135182  0.1168130698732825
  0.2382038228644136  0.3639682287419786  0.6130738047361719
  0.8655808807652866  0.9881309590368552  0.6148002587168171
  0.4899924546009820  0.7340131045567829  0.4893462505134157
  0.7388997567717751  0.2372726099290618  0.9874739085313115
  0.1120097893432770  0.9886879656123317  0.6145996743312113
  0.9880943006476417  0.8601261529142192  0.6140361497413859
  0.6106970539807186  0.3618543454589759  0.9904634258615005
  0.3623453389922451  0.6071604720757077  0.4891204261047578
  0.2353582146601000  0.7340510170234887  0.9935178971414902
  0.8595964269634235  0.4877547878114126  0.3638266133354750
  0.8592639249914795  0.6090942876690632  0.4891333104474586
  0.2417159106312724  0.4905392658786532  0.7422274401036666
  0.2340972820518251  0.3650774609750109  0.1132899799329216
  0.1061496691241951  0.6176987283070037  0.9919582341476582
  0.7358327925003443  0.3632017422420520  0.3619418532929363
  0.1054277830655952  0.8619794111215058  0.9947648493984909
  0.3637880716354476  0.6149168253420141  0.9943955178869569
  0.6102829015459309  0.6100724342146776  0.4880872556340313
  0.8596862020864240  0.9754594294469627  0.3761902199285767
  0.4877075100569363  0.1170879039755972  0.3602563697981035
  0.9872140016404135  0.4898046944330426  0.9897921630149151
  0.4899863573744684  0.8610581390885452  0.3631074385142333
  0.2365686900818153  0.3665897325665579  0.3664639938826358
  0.4893723943614298  0.7371541702583448  0.9930707489059131
  0.4873468907743368  0.1144429743338919  0.8690865571220109
  0.2363676415277807  0.8639996285623774  0.3678056056557126
  0.2373307238441833  0.2414916061014636  0.4862239674419188
  0.6104203142953092  0.6093325114451507  0.2376792376673828
  0.4873412075489414  0.1145072461502463  0.6183087579084413
  0.8650975353356325  0.2457753412237209  0.1098057664668781
  0.6106307131051701  0.6135219564180855  0.9960382930263779
  0.3648725340613291  0.8625358845107628  0.9921629448819066
  0.2381937095607400  0.2382749967943429  0.7403951705115223
  0.1054552465969709  0.9881985260094562  0.3608503119377116
  0.2333326307940899  0.9831568025892811  0.9931308602718657
  0.2402562445408526  0.3625843171277885  0.8685880861534512
  0.8581490942010885  0.8491126035499000  0.2538137686839770
  0.3622258691975924  0.9837060819273709  0.1148876988217278
  0.1134837123806145  0.4896019986964626  0.6138037996145678
  0.7374697638530582  0.3639303379960176  0.8670515803859904
  0.3635654808993735  0.1113889651610107  0.2369163183820791
  0.3629867843468678  0.7382557285768052  0.8697541548036362
  0.4841188405825999  0.3628129757812490  0.8682861573317535
  0.2340237876440165  0.1115485724757235  0.3647692496900732
  0.3598618923225558  0.3665202240374650  0.2366891501862440
  0.8667924150222850  0.1239226428195494  0.9821243632295681
  0.9861124168494640  0.8565361534683101  0.3677941415453471
  0.4881583761822363  0.8629596260897707  0.6177133559566751
  0.4883811425675845  0.4880722185828111  0.2369563268605210
  0.3603512585631901  0.1152038934026611  0.4873128909719151
  0.9883211213923956  0.3700735921483677  0.3662183588555714
  0.8642491148840802  0.2429859498892397  0.3649908519889498
  0.9918083466112848  0.9907372200276168  0.7329237922526073
  0.3614476055461446  0.9862718454935047  0.8689866533559822
  0.7347457146117718  0.7347908604904122  0.7397462790692885
  0.1056487336881277  0.7383714627248640  0.1131547262157051
  0.4862428524034112  0.4875082133701955  0.4925980665826854
  0.6125624699823251  0.7395654760559314  0.8706108444817193
  0.1128107644533482  0.8608754357000801  0.4884654475823019
  0.1088340650903615  0.2408412796897250  0.1137876727287507
  0.4892487386126982  0.7381614873478151  0.7462607885244756
  0.6147688220706696  0.1146921312532002  0.4858290721442048
  0.9867305138478845  0.7353462752198262  0.4900556209562259
  0.4879838492491365  0.2364470243368780  0.4913220414522046
  0.9867453894030110  0.6119749845580454  0.1182889574129800
  0.3623756527343504  0.6120571579304933  0.7445623476246586
  0.9822804141629372  0.1127692518365526  0.3659515035796077
  0.1114417806240530  0.7377170389175629  0.3670356099164542
  0.3636202841713508  0.4862289014127811  0.8675207587100120
  0.6126769037063846  0.3632750955156284  0.2363114058475734
  0.7373092429548130  0.2390522006071627  0.4900847062657767
  0.8617681738054833  0.2388387773483134  0.8621804845078819
  0.3632076008417185  0.2402440214316926  0.8657090004562821
  0.6113051259989510  0.8599261459237868  0.4900519376470013
  0.3608157099129857  0.2409977272867549  0.1151621905038992
  0.6150023353799768  0.9908533998681243  0.8682338519919754
  0.2364497546337718  0.8636548741664455  0.6149060036470115
  0.9888995749108545  0.7299384453582546  0.7382456621099077
  0.1149019820953929  0.6108067984128696  0.4897331380672689
  0.3665872123579189  0.8619325895270068  0.2399728004306770
  0.8649122028011768  0.1127597391232729  0.4917863552876595
  0.2352975675426669  0.7359643414669128  0.7436736342280862
  0.3621913917557661  0.1132889334376699  0.7437746625481224
  0.1139275843451402  0.4858220618728954  0.3640867151265055
  0.8639056226739160  0.7246583802862709  0.8556553625174077
  0.1107543796638894  0.8587212861774098  0.7377613440582536
  0.6106096153736028  0.1140351600962700  0.7432955761225500
  0.2372150586622537  0.6136967989565901  0.8659622688690923
  0.7359825891307217  0.4892765808391967  0.7401823546886860
  0.2380917549529545  0.7340096495384445  0.4883051870276829
  0.4866903413981090  0.2397964615274809  0.7429795792822932
  0.4864152765738781  0.4880895944000570  0.7409090366409449
  0.4908812237901322  0.8635661238776179  0.1154602730647334
  0.6124576302638365  0.2375329141770764  0.8679591492538563
  0.1128069978589193  0.4900521565164019  0.8703923845459047
  0.6161671340825935  0.1126080637585525  0.2370085286183533
  0.3631033863921702  0.9889346259603923  0.3616726928124457
  0.6102160397311468  0.4852804103123118  0.8697276606987474
  0.7417755729165115  0.2418996682498941  0.2390147688311249
  0.1123256799334871  0.1134332846029048  0.4877339163310876
  0.7449989026386443  0.9764010635955322  0.2417934233920002
  0.4850638260290405  0.3639077495012303  0.6148249176323604
  0.6170294530881103  0.9873490343686178  0.3623056465194655
  0.8598251807186853  0.6094921951972759  0.9920612812989301
  0.8645316955286788  0.2393135725168725  0.6130813127753659
  0.6081422119802050  0.4881745704811119  0.1138683121759778
  0.6136479671565020  0.8625660149604468  0.7459629654743660
  0.3628649206716579  0.4859960741792624  0.1142861348070612
  0.6116954064051917  0.9873707837520581  0.6192131392411732
  0.1042453207408308  0.1069357351049158  0.2380524498369473
  0.2375514157170838  0.6078349781889100  0.6151302184883684
  0.7415284487249607  0.7336089358834551  0.9986309211773633
  0.9902117327625413  0.6090191430338509  0.6119696152637475
  0.7316874728919170  0.6113240307169019  0.8667850365961682
  0.2360542506059091  0.9872955585050534  0.4911313264840108
  0.9903265309524177  0.9868087997563909  0.4908292972068154
  0.6096209850181532  0.3630066498140931  0.7424279079781769
  0.2401779121012422  0.4924618716751152  0.9900071902324213
