Cr Fe Mo Nb Ni Ti 
 1.0000000000000000
    14.4324500656286094    0.0000000000000000    0.0000000000000000
     0.0000000000000000   14.4324500656286094    0.0000000000000000
     0.0000000000000000    0.0000000000000000   14.4324500656286094
 Cr  Fe  Mo  Nb  Ni  Ti 
  56  13  26   8 145   5
Direct
  0.9912103504591528  0.7364691770750614  0.4902037889032697
  0.7362015198597949  0.1187404915582288  0.8633329240142401
  0.3536749951186384  0.7408028746371632  0.1259779721686719
  0.9895846371517981  0.2389444377364457  0.4925474859566432
  0.7371879622110917  0.7338661739669849  0.4836744609492065
  0.8640669278399915  0.3672093777474192  0.9857667048565018
  0.7482232884035894  0.7367446995822774  0.0055679833055735
  0.6188642823564614  0.9944899803057831  0.1115525033391492
  0.9711881154101926  0.9937035400571305  0.2330501423529881
  0.6149893909551424  0.7349777316328844  0.3691395453454354
  0.3625514641189689  0.9907879945944172  0.1162185608791848
  0.2360371703663219  0.7366981943322942  0.9877900416611722
  0.7368971691181595  0.1183914654795230  0.6150283305417412
  0.9764740065008064  0.8639095882378887  0.8677162064133521
  0.8609904104752569  0.4858988862367020  0.6116826783253577
  0.7584051643313898  0.8651491989845680  0.1027297871984083
  0.3637110850540622  0.8692880574347365  0.2382620341003557
  0.9926163181623727  0.1087730233220687  0.8666419548499701
  0.1163618482392436  0.2366046806157564  0.6126912845056673
  0.6159925931651673  0.3641950770717789  0.4953179480081756
  0.6132829053475066  0.4819457019934779  0.1109692135793344
  0.8594127061695391  0.4804969216469126  0.3684771608052754
  0.8597918117561256  0.4857514956791551  0.1119632011022668
  0.4879735553871711  0.3631289841793793  0.1149070750829129
  0.9763798860314712  0.7447951768672184  0.9876481297347198
  0.3550793446724455  0.7346598027399278  0.8678752925442289
  0.8657642461697893  0.7359827919895947  0.1188410557058303
  0.9853864538951123  0.4873534924531694  0.4964725282316426
  0.9878426739358047  0.6128539346914710  0.8666641686095047
  0.4857676284214462  0.1133530729845420  0.1130384130203352
  0.2314563856321839  0.6108660644893075  0.8666906618862574
  0.2364387003959370  0.2362147966747455  0.9916063393989260
  0.7371319890699451  0.3633913734902727  0.3673579817465366
  0.1078401954180801  0.8688341860175617  0.9871642208561016
  0.6127910083705025  0.6096059974428928  0.4814554615585274
  0.7454589975375813  0.4851455688382297  0.7308699933298969
  0.2304982632542695  0.1152858702672979  0.8700023062595783
  0.1140108608019081  0.1108876376712621  0.7429022969963636
  0.3609955180923949  0.6059148148131277  0.2356587383018299
  0.3571690102679504  0.4880483510729522  0.3604961630772734
  0.1122338913709927  0.6139105781237353  0.7384436827357166
  0.9848904924095336  0.2418356391542531  0.9827016956958526
  0.4882221705343074  0.6112631872938740  0.8671387011704480
  0.1126162578797530  0.3542554050560593  0.4948642323209210
  0.4895801890953251  0.1195222062497560  0.3614671303997715
  0.8627590590514079  0.8715783707118436  0.2405991880020234
  0.7369531404490064  0.4864780641130851  0.4899681677063603
  0.4885426019785810  0.1164736159550181  0.8720124185457829
  0.2451734182890979  0.4861357252669903  0.2379801206871281
  0.1062979094331051  0.1114319605745836  0.9880889683375021
  0.2351469787316821  0.9892747307584658  0.9863473318739930
  0.6197947368316311  0.1146375190089379  0.9883098495180590
  0.6109388744956592  0.3678869411604183  0.9897778838996081
  0.2359050859029931  0.7377206129869390  0.2355478926760058
  0.3635898402320212  0.4848613130209947  0.1152351408845549
  0.3568535152835838  0.9867784086402642  0.8680235641536365
  0.1072568856692477  0.2360975172515151  0.3716271155243275
  0.4876880106499826  0.4889958630527415  0.9942276626881882
  0.1074141820498000  0.9866158383577017  0.8681412417130430
  0.1110299797446297  0.4860751713264223  0.6095553048819780
  0.8589259558149099  0.3642429028079548  0.7397080837244556
  0.7401342455126937  0.6090171234240318  0.1151331510036552
  0.9847822492247275  0.7338381913869853  0.2402292834706583
  0.1116275666213680  0.4888236581148010  0.8677452123931985
  0.7395275660702151  0.3639580867576632  0.6137337412491527
  0.6130260432993868  0.2412139692956589  0.3639752502420290
  0.8692988734511352  0.7328245742192144  0.8645633168757620
  0.1106592944509630  0.6113416539686393  0.4935116941569704
  0.9896033247040006  0.3643707149951506  0.8674848070215254
  0.4857715982791522  0.7355881053412170  0.9926522888565024
  0.3618379276975468  0.2397838549321233  0.6137620436479810
  0.6149161984666830  0.6110223061510195  0.2375415872386502
  0.9503068911666555  0.9680299282167093  0.9983692908028935
  0.3599027920296902  0.1101390299536303  0.7475136850843720
  0.6149506484579152  0.8627829909444151  0.2362582728714301
  0.8648096287112194  0.7380474259563985  0.3631227176531507
  0.1101636642215250  0.4852511478030201  0.1160795475960166
  0.1076282712459690  0.7414657037423910  0.1116498357600785
  0.9859885041946070  0.2410317001447253  0.7426549232438702
  0.4897052016288148  0.3608683632170497  0.3652024096876970
  0.1072567931044879  0.7385475009892911  0.3632976633952397
  0.3579388810587384  0.7386635747168796  0.3577744032217596
  0.8585046438906092  0.9926975743934718  0.6227907681894455
  0.8612002829416674  0.7366089840254425  0.6126404775859252
  0.2335576256498965  0.3647624206742774  0.8649181350781608
  0.7581655011958581  0.8551265300662028  0.8833499209051644
  0.4864892432374924  0.9853702171458820  0.9900255155273330
  0.9870744399799940  0.4855001369862513  0.7396061257891708
  0.6090035493153514  0.1130606489307922  0.7439802164857409
  0.6192481342927626  0.2315512344709575  0.1141264755123263
  0.6142985987403773  0.8625885520238508  0.7495842000237312
  0.7329739623548257  0.9848115807628481  0.4939848388682593
  0.3672281527879506  0.4902341315487342  0.8689547021841896
  0.2361556169188195  0.9893060455767644  0.2381086918297628
  0.1081724620306550  0.8618667574295175  0.7436153901581621
  0.1108367809486897  0.4834621609494929  0.3644258530870162
  0.9720154697559383  0.2295794381723642  0.2378319624425628
  0.2352092110049375  0.2369658453054910  0.2387501768486928
  0.7465982862618158  0.1194918919233298  0.3596001369078765
  0.3620973848460491  0.7375354523818093  0.6161506573017435
  0.6091327542675924  0.7323768099741031  0.6139959093411524
  0.7844089936982691  0.0911067828120278  0.1311578703542473
  0.4858712360262008  0.9875214041133376  0.4931435625421795
  0.8633418014374448  0.3617737661610947  0.4933673937684416
  0.3588108738211509  0.6124750591500915  0.7440274685282708
  0.3618754838218798  0.3615836428922576  0.9952479254826461
  0.9882227465114782  0.8666258019035911  0.3621332226774998
  0.4859101009621881  0.8625879621206246  0.1172998029396134
  0.9845102467318340  0.3616504066837476  0.3668868486391555
  0.6173117808619375  0.9867031567987434  0.8700115822926540
  0.7362242779922790  0.9879982502230282  0.7430723778272922
  0.8629886964658076  0.6118946907817439  0.7393807755023998
  0.7363722980958118  0.8604000357662122  0.6159337282608596
  0.1062282433538419  0.2348425582636059  0.1095672242840415
  0.6136891636515416  0.1174335110230804  0.4900346060725422
  0.4849713382962404  0.7335901052726248  0.7480039286896510
  0.4878815756758684  0.3640767395019816  0.6111617669943270
  0.9830742658672039  0.6083141212275690  0.3640916547559032
  0.2351556497308238  0.4886543051973605  0.9926393889655790
  0.8632873401692807  0.9870041087135915  0.3678578156402979
  0.9780454046426615  0.1113044287193819  0.1056699767745885
  0.4904490551494943  0.2367660705681121  0.4912395067024438
  0.7374602152477827  0.3685921883519597  0.8637937314868104
  0.6114128866972545  0.8587815201070205  0.4883623682302115
  0.4851193742511267  0.8637880105086488  0.6200879062102932
  0.9866820127143852  0.7344704138815492  0.7407545271969445
  0.3649575588038999  0.2349021698020569  0.3660087906520241
  0.2339783626059490  0.8629126593047226  0.6165621158329518
  0.4872263608880869  0.7356382464798444  0.2373573640913745
  0.1107248048965603  0.7376266298698180  0.6148827279351129
  0.8601710250313761  0.2439225651161546  0.1039507602280802
  0.1041168311687382  0.9897053615722324  0.1103942113882565
  0.2349430640436219  0.8617133702900074  0.8674826432512170
  0.8605804894923781  0.3655271422798273  0.2393375263947117
  0.6106000147134397  0.4878997917649351  0.8682812767832057
  0.4866800777752456  0.9852302011886306  0.7455754144110431
  0.1046456452940813  0.1107892804652001  0.2372293601171134
  0.9844970045846163  0.1131617031469424  0.3667974615071216
  0.2377013456252007  0.4874491560147273  0.4903335045821497
  0.2337311214314540  0.7354505425017638  0.7437769281946317
  0.3590904162504119  0.9865432152885026  0.6207924984628946
  0.2357614679273853  0.3630988128623077  0.6154144620577636
  0.6104056712184239  0.9897976117590868  0.3628739892313090
  0.2332871320524883  0.6118062194761184  0.6133707252781679
  0.1090219293031453  0.6124506841657325  0.9901617428081785
  0.6145474235660741  0.1121313707780616  0.2389726030840487
  0.1125656891338358  0.1158924692673723  0.4907198603850915
  0.9861609143548741  0.3610636056722412  0.6135423051181811
  0.7409992357590817  0.7377358947835709  0.2374610100448313
  0.3594693813021091  0.8613204855880360  0.4862100073700207
  0.7410888184251850  0.6080663057200515  0.3631194521852362
  0.7404905714636375  0.7362116350427678  0.7432397578657663
  0.2321380157117883  0.1106597076683245  0.1109050945837427
  0.3646621431941847  0.1136889940237038  0.2395830636623225
  0.3650041704026577  0.2359816923318540  0.1135307143333729
  0.8631589030033030  0.1216725345294465  0.9772436040022880
  0.6150635800117643  0.3628539079677185  0.2385358153502601
  0.8658695559744818  0.1179485190454292  0.4927209817000054
  0.4866958123839418  0.2394115548784770  0.9890158701628882
  0.1063106814477891  0.3575091363637358  0.2383682437858577
  0.6173737965859237  0.8627862138806441  0.9934770103689203
  0.9846414487666453  0.6099424363524736  0.1165258024573211
  0.4857477888347691  0.1134064658355840  0.6188584528430328
  0.6134877492091904  0.4899635587515844  0.6135805367013372
  0.2339618030444856  0.7356939293960938  0.4889705326388187
  0.4872307768633499  0.4896831201376834  0.7392197465618393
  0.4855381962997006  0.6108981461089917  0.1161648933546828
  0.3638691256223734  0.3615069570832949  0.2383604847609195
  0.2330233620761929  0.4898707087463786  0.7380940024649569
  0.7388238344329207  0.3652933982225373  0.1122970183763704
  0.9813592579986781  0.8630205257704839  0.1224453135578885
  0.3581663727546375  0.6119010187479137  0.9969468771630676
  0.3633169134855455  0.9912849079226319  0.3614038601344363
  0.1118034754590568  0.2394046377713612  0.8659178998021032
  0.3596302155421211  0.8620412308065313  0.7455583475952215
  0.1135588572223664  0.3633181479843651  0.7364447800528668
  0.4892217191635325  0.2379795286658587  0.2377432948469325
  0.2344045041141190  0.6124667309360788  0.1148037336910723
  0.2354781066305648  0.1126898511340347  0.6168555257665491
  0.2332935792254998  0.9854060870253745  0.7433903438208946
  0.8593778462610284  0.2442157021490148  0.8625997270482587
  0.7350482122403499  0.2415357473642597  0.4932858288413333
  0.6128332436081825  0.9870259136722213  0.6199048604359407
  0.7398100316165280  0.6090557177442385  0.6133145664380294
  0.2333214280117405  0.8669441452305239  0.1132741769056442
  0.3588753684938915  0.1165708016376615  0.9908323156326616
  0.2351764764776025  0.2388289608626630  0.7407383845802025
  0.7382745144444840  0.2438536513115386  0.9846208261090735
  0.4879827905024103  0.8610305782879573  0.3619469939365934
  0.1073932810844988  0.8687662709136252  0.2390087838004581
  0.6109647452185416  0.2387253715916185  0.6153139527562093
  0.8604227970420169  0.2388422524216135  0.6150076948140339
  0.2373735921923464  0.2378981540840938  0.4895111770133971
  0.9880167332969580  0.8626855124181090  0.6146344839101461
  0.7377970698398808  0.4873276178445515  0.9908050194029338
  0.8623355316998388  0.4875552598365371  0.8650072419939155
  0.4901752438431376  0.9914739363675866  0.2379915714618335
  0.4859527488243152  0.7351573039537209  0.4843317245242661
  0.9847602794829771  0.3628229813909838  0.1132328281093731
  0.8633619111620240  0.8623663556936798  0.4901008536102728
  0.9892680427645184  0.1146052548251193  0.6166858337470644
  0.8625839365659961  0.8601381880440989  0.7400523407330517
  0.4853590798626070  0.6080525776707653  0.6135933503629800
  0.4850498812801251  0.6097928507775622  0.3625636770766678
  0.2348306647063507  0.1129754490750987  0.3666779992499349
  0.8601229638835765  0.1192273535449404  0.7410378619875596
  0.8654764266777030  0.6103745012304347  0.9916109988428953
  0.7357289638318746  0.2423114296150342  0.7405576242570028
  0.4831082774930129  0.8590313157392154  0.8674896325389139
  0.4850902813838541  0.2409222335143449  0.7428505813765968
  0.3565024417152958  0.8607076484957087  0.9932894493711083
  0.4853300642568927  0.3630327664332358  0.8689986979850930
  0.2330502789059788  0.8655273091955951  0.3633732753105479
  0.6138199317891788  0.4851372815149094  0.3632208599249557
  0.3610476296262872  0.3624145420879532  0.4867893535331212
  0.4879859385905151  0.4883962758408079  0.4873720653691490
  0.1101322147611609  0.3614574371462572  0.9912911774437456
  0.8597535047819774  0.9964500964911982  0.8559998114254146
  0.7381568903537505  0.4844207532994031  0.2390769366061167
  0.6161758496809014  0.7380864712513460  0.1147412340777371
  0.1086370362133997  0.9915298713725926  0.3621142097457563
  0.8618023165280412  0.6079536602482392  0.2387825344199019
  0.2350152109198827  0.6122478360132384  0.3658834278270333
  0.7394394443272383  0.9814074639706040  0.2468963706265411
  0.9866854378205815  0.9898724540763641  0.7419306592346673
  0.1080641647101324  0.7377659668417132  0.8686654286269805
  0.1110532708458730  0.9899697105537959  0.6187924804687767
  0.9874787373231542  0.6129647539561240  0.6126506273862875
  0.7369966284372388  0.8614407632085775  0.3671818519099250
  0.2356430882255895  0.3618616998934332  0.1135563349200941
  0.6132489338923836  0.2408777788559091  0.8689068781182467
  0.1099630472380727  0.6109130250011497  0.2382843999364134
  0.8626116916023154  0.2449533321220002  0.3733918535764058
  0.8630998719027397  0.6087058277947455  0.4888521103072215
  0.3605512557276315  0.6101660573919991  0.4864298223280604
  0.6144668577682780  0.7378467167703896  0.8709352207914187
  0.6126297899476255  0.6086443083175973  0.7418852318583127
  0.2384429711671756  0.3599937913845725  0.3669880838626715
  0.3618064502281402  0.1158386649984275  0.4893540556910472
  0.1125363785352476  0.8624750845273844  0.4909415031033785
  0.3626253935553614  0.3630449310964611  0.7398329910379284
  0.9818307004513719  0.4855730263999470  0.2379768070599043
  0.7470840019724013  0.9948380345881851  0.9879440713275527
  0.9867141757824212  0.4885432006176096  0.9883628423058837
  0.3611648082676296  0.2389948573177173  0.8680068396470324
  0.6127794906537429  0.6112439961844141  0.9958589955242307
  0.4881619209555572  0.4858819043671321  0.2385437861584763
  0.7451172657465720  0.2411117242729181  0.2367769155025032
  0.2385321371664576  0.9877700958295631  0.4916785369942456
  0.9931744617394104  0.9877544248228993  0.4886145674928982
  0.6070103935515005  0.3632741980031515  0.7410704791848628
  0.7355288988670732  0.6124152525605437  0.8683422780733601
  0.3617723947589422  0.4856960381321996  0.6153747863576143
