Cr Fe Mo Nb Ni Ti 
 1.0000000000000000
    14.4324500656286094    0.0000000000000000    0.0000000000000000
     0.0000000000000000   14.4324500656286094    0.0000000000000000
     0.0000000000000000    0.0000000000000000   14.4324500656286094
 Cr  Fe  Mo  Nb  Ni  Ti 
  56  13  26   8 145   5
Direct
  0.1126117524767238  0.2387871954726718  0.8644331240803996
  0.6130114967277013  0.2393984032795694  0.6137095702020015
  0.4867052893993372  0.1163795694096200  0.3595893041898276
  0.1187667680696879  0.4909035977850638  0.1123434165535782
  0.9742599656833331  0.1281191195990680  0.1230264458357218
  0.8645732592168797  0.2425230572549624  0.8622952812227479
  0.7299790062816331  0.6075724496963857  0.3675212153719078
  0.6177977474212690  0.9976412914119952  0.8712527993698671
  0.6113434230501951  0.2364773740674871  0.8680353928526332
  0.9893387208780305  0.6031656800390227  0.3686095612163766
  0.3620160355224277  0.3652598620323108  0.4899583437678868
  0.9879823600629239  0.4882360453059998  0.9862171500129325
  0.6129388195329046  0.7333854559290736  0.3623440685048149
  0.6157828135944370  0.8654011896462416  0.7399519775278333
  0.4911180631864442  0.2366458236134973  0.4837746453314803
  0.3607955430038166  0.3580295227408672  0.7377633335393466
  0.3614103799175365  0.8649608315683076  0.9955682095757266
  0.8591107069579677  0.7338873015187329  0.6148371054002107
  0.2325651688742432  0.1145864105339230  0.3675260212575152
  0.2357458025950191  0.2388029689166304  0.7393925585109385
  0.9919709205597668  0.4873126490981422  0.7407924404124174
  0.4929637201597716  0.9898373938640460  0.2426884287559514
  0.6206695481938760  0.1237779955274985  0.4831717368715636
  0.2352067323947404  0.6067755392049823  0.1138985439017515
  0.6127644211144418  0.6101984536300845  0.9928008676057770
  0.8628405883441612  0.2496005067169831  0.1156595032153092
  0.1149120602905008  0.6065765462878548  0.2378491234734644
  0.8583668074729610  0.5032249765425917  0.3662374813349147
  0.4817266603308340  0.3525794398191454  0.6091992901828461
  0.7335019900972587  0.3733157848060608  0.3669735681603363
  0.4880391181122899  0.3658328443824131  0.3733874686654000
  0.6130734249321582  0.3623575146554412  0.9887489786425762
  0.8615556945740686  0.6103422045044595  0.4982097197384767
  0.7271459803353645  0.6028887323309876  0.1086661707048050
  0.6190182839279142  0.9889912996059472  0.3511191499547584
  0.2283222294955357  0.1177918711657723  0.8675116576402963
  0.4911497936853308  0.1105027762285424  0.8751092222025826
  0.2304389846460111  0.2290325279483590  0.9858346036766270
  0.2306471592949684  0.6028817409360200  0.6169240229488806
  0.2399178805579853  0.4878119678317143  0.2405592399112883
  0.8676583500087492  0.1270593868037545  0.9733574017003217
  0.6224062741541999  0.1164142367353265  0.2416790409724231
  0.1148554011260879  0.4859542757854062  0.6175952238283196
  0.6098389899354559  0.4873414164296568  0.3655836484093979
  0.6197507603836901  0.2388485846698128  0.1167173153138662
  0.1086515891838982  0.8622030799171264  0.9896774589721166
  0.4899830183940203  0.1122784751483482  0.1177245448679417
  0.2324974612334496  0.2382865922832247  0.4878704483094052
  0.4910427728425448  0.6046597605548367  0.3665462766876008
  0.3611860206734471  0.1127076342571841  0.9927061844984169
  0.7362747381207451  0.3663714931446569  0.1114911655859290
  0.6116306084664639  0.4777303304371692  0.1140364633122256
  0.0949684281510570  0.1114505029006943  0.9961542295460899
  0.9930342954931450  0.1173925158574076  0.8645605193321662
  0.4922798041088689  0.9943147522167454  0.9987475231042766
  0.4909021334112638  0.8687267306697499  0.1134676491615622
  0.2375777264622653  0.4884752489072735  0.4921937104092381
  0.8600303637726980  0.6058874169488150  0.2369805395317235
  0.9912488426213388  0.6101265656124607  0.6151861293854820
  0.7343784013876146  0.2425329752688140  0.4867325938114294
  0.7311886688687319  0.9911347636071041  0.7408439673302927
  0.6173267964710986  0.8637356857543009  0.9957472635329198
  0.7359016680090826  0.4815690309773193  0.9877901123921473
  0.9946931399604145  0.3669052886334473  0.6175543883414809
  0.9858753160399722  0.2523991692046091  0.2372181079115446
  0.2359414495212355  0.7339158980061493  0.2409403090172508
  0.7454808350938222  0.9764033513733823  0.2491232072489283
  0.3632468115568222  0.3691480094783962  0.2412439842436579
  0.4835386965797537  0.4850340952733100  0.4916954009658741
  0.4888242133502821  0.9909653187893160  0.7366592179249574
  0.9505216028700655  0.9900458222893478  0.2192296010929245
  0.9845898698909411  0.7324866327048107  0.7386539545712911
  0.4920783890999688  0.8670338082114250  0.8721148651580093
  0.6092789019388268  0.7355827047363382  0.6185834843176341
  0.9900790035280171  0.3694815859526076  0.1115993677824177
  0.7328662421939783  0.9890497391084941  0.4850675888252187
  0.2322550247468833  0.9912884746135960  0.9908650111325440
  0.4868860468449052  0.6099794516758353  0.8672311601573262
  0.9853511888375900  0.3685429813428642  0.3642374291850004
  0.9807469285093322  0.8514611958902345  0.1209461989898785
  0.4920528525474614  0.6059031419739184  0.1133143451553998
  0.2345215742209523  0.9891154419866668  0.7432130364271355
  0.1131450427005492  0.8583867589547481  0.7389551010398114
  0.1101629061100063  0.7336341911705726  0.3630926228975049
  0.8623542080008755  0.7229317810004007  0.3686424311706547
  0.9468463138761942  0.9831492261954957  0.0101494352169537
  0.8652107241986141  0.4855577812750477  0.6185503698978227
  0.3602205935688869  0.7343983313889206  0.3611616970823179
  0.4861475155292964  0.2417435957210001  0.2405902673152412
  0.2308513807285002  0.9896429771181718  0.2427068987841913
  0.3607698890556656  0.1177144816610527  0.7374097301512039
  0.9826394736597364  0.7341019157893502  0.9895708579204762
  0.3606520706750397  0.3591782063131501  0.9896035978878710
  0.9828136786480114  0.9881045895865190  0.7356237678017420
  0.3587864249442910  0.7397673808289168  0.1166125105571205
  0.4907232899030444  0.9890146990979202  0.4867954380825351
  0.7606834915360385  0.8724646284144114  0.1075582570817338
  0.3629987757058505  0.7383626950254063  0.6153027211925853
  0.7510437354212757  0.8607604592242141  0.8766993746921414
  0.2363075764284837  0.2420448725112066  0.2399059326573727
  0.7839650144621095  0.0947211474514654  0.1387590503658191
  0.8622681131582253  0.2408454795758620  0.6150276438419994
  0.9696520166549618  0.1248653833532886  0.3486793110734792
  0.6113255474218259  0.6090137026330699  0.2398691739194592
  0.1139364719064345  0.3700166187235824  0.2405403079721059
  0.3615396226642184  0.7398895073922739  0.8680612055878962
  0.4906393530623381  0.8602740002262779  0.3611192764582609
  0.4893443005876137  0.7337049345175086  0.4859461863018040
  0.9867604725909633  0.4911449950319955  0.2388485024744492
  0.8567835118967937  0.9898634018922187  0.6147797213023205
  0.8582364693665469  0.3721209866029759  0.2412197336671222
  0.9873701679747906  0.1136417860739793  0.6134282751091635
  0.7338321955644120  0.3621231634657858  0.6159681223832771
  0.1157659047250941  0.4869671336179416  0.3658161789029115
  0.8601453159723358  0.1176467095436225  0.7404325966563181
  0.3631088914666395  0.6072964055046554  0.2412377394305572
  0.6088451989745263  0.4828644025563327  0.8657602941496340
  0.3620173726041573  0.6104967716593298  0.9903307471090969
  0.8642504493634038  0.4870490652260375  0.8651417160940051
  0.8600974409370149  0.3701974040404543  0.4888797896265591
  0.9867797665893093  0.7247979547834167  0.2394464238788741
  0.2358693464368501  0.8623206736236343  0.6105066606450350
  0.1100923245650752  0.2399961202933528  0.1128458807687851
  0.9891888401427368  0.6069943707115343  0.1130906875408582
  0.3623074648833200  0.6075276468475405  0.4901561009347544
  0.3609236453380114  0.8651019539790598  0.7427960515782719
  0.8593974830614604  0.6068161773320201  0.9894302817514495
  0.1162238398031946  0.3635183723178937  0.9864011470846431
  0.2383535386207776  0.6079562154227308  0.3657175180011215
  0.1112053330460202  0.6118414995090704  0.9895729478207036
  0.9893425109250616  0.6080659881449760  0.8635404251008879
  0.3619558570380339  0.9894073160090773  0.8698868412997466
  0.1117856867380040  0.2386618955704151  0.6128183547106605
  0.6147262310859328  0.3650878490266745  0.2407947882287090
  0.2373674580649755  0.3601348050245767  0.8631454510103028
  0.2367794846239626  0.8614467354287133  0.8685744665868073
  0.1146353778512892  0.4861300862881857  0.8648693705708178
  0.8585245704153274  0.8547240071566263  0.4923441256504370
  0.9896170753545702  0.2411785741320857  0.7422963619777758
  0.1108433977035799  0.9903949895009774  0.6128479978502849
  0.3627011487449744  0.1109962267059769  0.2404690821510850
  0.3628275330968734  0.4828069678439981  0.8637769510544424
  0.6100682203668729  0.6100409968391934  0.4908680825796624
  0.7378665407112811  0.7305475320160540  0.9942027342642965
  0.2365375841740202  0.3643029121999021  0.1121432988842819
  0.3589863809980368  0.2365770159113675  0.6080474777550835
  0.2369255931513439  0.7323795397921407  0.4882265910848719
  0.7366314673022284  0.7364506032284460  0.7386911079600527
  0.6128306701774499  0.3631122623426917  0.4903406235959394
  0.7364421622155742  0.6112872344231913  0.6194607861422120
  0.8630396544536114  0.3647175220433612  0.7444733597928433
  0.7467681351717216  0.0009423428752287  0.9887721221106341
  0.7335885701391230  0.8524234024925335  0.3685057683201854
  0.9894715352641277  0.3646720852588407  0.8638468725276137
  0.2353718399994792  0.7390593939818361  0.9914330483210514
  0.7342607831684670  0.1150948824542978  0.6163542521650358
  0.7328204844729200  0.7277935805303991  0.2370467533803368
  0.2349317935503325  0.8625676791037301  0.3629600509074533
  0.2385482976578255  0.3658411682190972  0.3683675376559987
  0.2378002317577065  0.3611648104041599  0.6139675692672597
  0.8601486214845989  0.9959244619373578  0.8572103555292654
  0.7343494021298670  0.4890302568598194  0.2388336635826495
  0.1127884778603152  0.6114315846453703  0.7404809303314034
  0.6154533425440025  0.9901542005994055  0.6148214390132241
  0.2311061653420848  0.8637694214887311  0.1191903418001934
  0.6206908068494166  0.1171510451709781  0.9978060676646472
  0.3631119834219856  0.8650616065967837  0.2416139887385839
  0.1103510010902334  0.7381787214998702  0.8680557098101187
  0.1108459886239070  0.8589808168645767  0.4897298560027721
  0.8619568817934379  0.6088887266895585  0.7395974857450848
  0.1129258571039287  0.6082580918428523  0.4904330901588949
  0.7325998972054114  0.7314779324391939  0.4935323101328148
  0.4907681308177222  0.7380408237587237  0.9912934928358687
  0.1136994331393688  0.3635891529137191  0.4902699471954323
  0.7349747123242759  0.4829726214265514  0.7420296966326614
  0.2327436483213355  0.1147963690450289  0.6100729714970244
  0.6167923148613353  0.8603064486904693  0.2368027766897040
  0.6132581642109846  0.1170510560451504  0.7393233160657408
  0.6090357489657594  0.6120871737400163  0.7421074999604691
  0.1054595792742736  0.1152616106608915  0.2366968416611620
  0.3589038487670134  0.9867955577791778  0.6117648856366167
  0.7346459348826683  0.4883523434291107  0.4918065675225122
  0.2341644350925968  0.1129855085414456  0.1151777772057814
  0.8577189438761700  0.7222383305435988  0.1166831092725113
  0.4903768283507666  0.1188362818609158  0.6104014354947985
  0.4900139606353509  0.2363821298716757  0.9931113053497026
  0.8570617045789040  0.8459589290383028  0.2503208189937861
  0.4879851318271698  0.2380773363775048  0.7410978003504588
  0.1079232820829165  0.8618432050491461  0.2416015865688007
  0.4861134167150626  0.4816308037688953  0.9870401569397418
  0.6148083770014243  0.7388918043427217  0.8687518644685654
  0.3597844695040386  0.1156615269720653  0.4877244451136034
  0.9906263031851772  0.4871502754947908  0.4934374128916172
  0.6139280426467076  0.7387062201176416  0.1130833660243878
  0.8546446993133764  0.2515394823912844  0.3662953243698003
  0.4852663886047903  0.4821398417703244  0.7395784011576092
  0.7370807331336156  0.1204826215155592  0.8610784432899337
  0.3612086280778118  0.2362275510131912  0.1128151543042421
  0.6181453117483228  0.2420254964210865  0.3621932567838173
  0.3619972675782410  0.9895493879512206  0.1188145071875992
  0.3602375328278440  0.2385973263674008  0.3688516294610008
  0.8640438955741945  0.7302178039447454  0.8644254122935207
  0.9846277532906416  0.8584466438619253  0.3650591175919656
  0.7343669093438921  0.2424507463596969  0.7417978927584975
  0.3615517547847020  0.4866161487169741  0.1136655404766497
  0.4887019429653311  0.7371581446767501  0.7450858244318787
  0.8613630293980487  0.3649012585031977  0.9850915461249675
  0.1166716580259836  0.7320117547004041  0.1167943824222362
  0.7353892152316295  0.8622467325942067  0.6145250617892416
  0.1031513129238417  0.9898609185374271  0.1175302372496577
  0.7476054176174920  0.1168219540357554  0.3567996571971611
  0.7405644887377889  0.2465179114435815  0.2383216289008609
  0.8594268533566092  0.4886241234905244  0.1115999697665079
  0.0994029105052306  0.9895411367605977  0.3588185323741780
  0.4874309878227722  0.3611636986202755  0.1136893821424837
  0.9763503497801400  0.8650010112582773  0.8684564120872532
  0.2378510737885680  0.7357308249760003  0.7411967808441337
  0.7400806424724466  0.2396628663974505  0.9896933844722959
  0.1099175649561450  0.2415417422641446  0.3646451913566237
  0.9884742274306583  0.7321880064322682  0.4947499151600006
  0.9847438065316204  0.8585376731214897  0.6121405782172765
  0.3630632937645177  0.4863135654270360  0.3660651840608496
  0.8594606174425462  0.8629253311464851  0.7351421193134933
  0.1043316215421526  0.1159528118958167  0.4857325619338131
  0.6211815105624580  0.9921655332091688  0.1186729529017871
  0.6102979786023648  0.3597870542459995  0.7400252463822325
  0.4878049661171466  0.4841390789043549  0.2416807012122422
  0.3611285797182895  0.9900275834088210  0.3614686792321508
  0.4911837072615464  0.7354961879150785  0.2392632515634961
  0.2390056076198023  0.4869107390304520  0.9881592727966518
  0.8582478244227377  0.1138606188033458  0.4888250681787880
  0.2391030002060529  0.4838201106927417  0.7398386582686683
  0.3623656332492319  0.8609986849468575  0.4837979149449088
  0.3631131861823539  0.6081695744926040  0.7395972278684195
  0.6124060489386035  0.8572540481671462  0.4886553673510762
  0.1017607433594045  0.9863037513723218  0.8701787592126217
  0.9881600397249793  0.2458201519452996  0.9870598994015957
  0.1164283118744331  0.7325559461619844  0.6133025786704490
  0.4887453300364364  0.8618185323684899  0.6141156160335285
  0.3631359146010186  0.2356707084453845  0.8671347466179840
  0.9855701416630820  0.2441459813791309  0.4882461071753700
  0.7359034098654413  0.3623028194812453  0.8645938824669626
  0.4858891184003684  0.6081864769150254  0.6152080706165775
  0.4866985536735531  0.3572385677159770  0.8637725805402644
  0.8598003933107872  0.9781001443703518  0.3700845878179140
  0.3609290398985119  0.4846111312514074  0.6167850070648574
  0.1102773947636414  0.1149327423880023  0.7355310690533272
  0.1134190742839057  0.3625715686415753  0.7402350737013215
  0.7372779166850406  0.6086575477757299  0.8607697191676471
  0.2316295817682068  0.9854629857077339  0.4866769068551309
  0.9833210904075902  0.9819164471716358  0.4936795081451019
  0.6119247107662468  0.4870052436899543  0.6181353476475107
  0.2379453059958589  0.6119282227190751  0.8643429003688901
