 B Cr Fe Mo Nb Ni Ti 
 1.0000000000000000
    14.5059237211907668    0.0000000000000000    0.0000000000000000
     0.0000000000000000   14.5059237211907668    0.0000000000000000
     0.0000000000000000    0.0000000000000000   14.5059237211907668
 B   Cr  Fe  Mo  Nb  Ni  Ti 
   6  56  13  26   8 142   8
Direct
  0.7259616077810586  0.6713921041885127  0.4673912447518914
  0.5991579751510306  0.4899254683178782  0.2885678648015296
  0.5946296013124329  0.2957809815989116  0.0862018050319861
  0.7278578396457148  0.7971161972934905  0.4639523638860109
  0.5993501585215751  0.4860243613157235  0.4083594702407393
  0.5961762139347691  0.1730816527725339  0.0862557546587753
  0.5991065592738738  0.0930825774208116  0.2150697660913084
  0.4689348830525929  0.9855353358569360  0.2201975095743793
  0.8501273818724006  0.4838398129461939  0.5945504510120544
  0.2333139624195073  0.9922382744241779  0.4649392708815541
  0.9808805773801322  0.6190371235054671  0.5745787285592950
  0.7245866347893481  0.3769194943159196  0.0880174479774096
  0.9757642685850011  0.7376609667969160  0.4550780410127743
  0.9787790477355791  0.6146232662936382  0.3490006613769867
  0.7010440360824018  0.5838150942937933  0.3437426208042947
  0.9787347910886443  0.7356125632351146  0.9654673197122801
  0.7262558348083352  0.4931378329419199  0.2064678880529617
  0.4739278914262227  0.2384988022979526  0.4707333315359343
  0.4818741538774471  0.7335806265355665  0.4592418392880288
  0.7291726333397519  0.0985552996705139  0.0874214078633886
  0.2263746296360950  0.7424153680250799  0.2237244093643008
  0.3440731051703697  0.2342331832103622  0.8472039669126740
  0.3436843319953147  0.4908634555210825  0.5876648673263825
  0.9789079835971357  0.2343773029621165  0.9632186653043771
  0.3496289342673161  0.9892283265320641  0.5871919481608037
  0.7229708280164170  0.9916028850646315  0.2129967004739560
  0.6018066121119104  0.6206864605246005  0.2111654455192229
  0.5939100921473111  0.6065015887114769  0.4905624963604986
  0.1082739716357501  0.4935456342832278  0.8457628203758882
  0.9828517876102861  0.8611771611368723  0.0966367213389706
  0.4681259224870620  0.9913061618127373  0.4661025898993569
  0.1075301998366760  0.8674135946911983  0.4604503567778753
  0.2275778737842527  0.1127272659932728  0.8401385736076716
  0.1083282401517221  0.9956383192685944  0.5882137725408635
  0.0989457401184871  0.7416784849121404  0.0960747387231278
  0.2307618163249183  0.1158505124071716  0.3404016391253015
  0.2222513580737130  0.4918823064960960  0.9602070209885508
  0.7308709422823176  0.4958238913073146  0.4830782774118792
  0.2293575689251663  0.8633579059915596  0.3430708710713800
  0.3527298572336261  0.8660241818672711  0.2235806949961083
  0.1063678858455907  0.6127730290000422  0.4646295943114566
  0.6273040102313754  0.7452339890712272  0.5684104749126371
  0.6027862870809393  0.9897154195002421  0.5875933631974962
  0.0962797940840876  0.1143382458196595  0.9589286241953825
  0.4754315862757534  0.5005212157301396  0.2077419852398609
  0.5975195415804839  0.3770664926757518  0.9583820519258271
  0.7284200905239919  0.6011796111680304  0.6027190358419695
  0.9784198207799090  0.4890654026725553  0.4695348771480701
  0.5987309967828273  0.8761489919094821  0.4671927487733691
  0.7252597490141648  0.8760438753871295  0.5916917222473873
  0.3412191384101960  0.4936978044141939  0.8437985436280171
  0.1041056443131424  0.1097799426134595  0.4557411818053129
  0.0939733768648718  0.9857080619675076  0.0909349580147851
  0.5029756948967932  0.5891320331716849  0.3487926540707024
  0.9829855901952563  0.3557351637621065  0.8434877488329943
  0.9775031780676111  0.1195393999829475  0.8415893492300326
  0.6198549927899246  0.7360873839268613  0.3732706662648688
  0.1013132074236578  0.3600006811931479  0.9609334451006456
  0.2261767328720042  0.6179923087971598  0.3451017634131108
  0.1059427900817580  0.6219562175663425  0.9593101608897410
  0.3521121159667127  0.8658397834535009  0.4662217018585927
  0.1037494068533002  0.9936729038134942  0.3434110166863136
  0.7314525226687819  0.4855308989246220  0.7192438839834980
  0.3523274452437277  0.9909125809951925  0.3422830245862187
  0.7235328474095322  0.1180816651047537  0.5893379289678564
  0.8539485933709643  0.5986233084008343  0.4647437379713282
  0.7253219151600818  0.9979183264330748  0.4661642578082128
  0.1050846550987783  0.7397114735867457  0.3436587464790365
  0.2316847095410202  0.1110669199057135  0.5906975899216800
  0.2239571097543130  0.4911699426531466  0.7152198173022238
  0.5958395076262067  0.3796861267703734  0.2030472606188655
  0.2219286264734245  0.2380921983358538  0.9593771419534434
  0.2244305204701535  0.9898384072331551  0.7107730434004189
  0.3441812951157981  0.2384084223442192  0.5887489318223503
  0.4704020491155104  0.4890087075540719  0.4825459688530749
  0.7027910329446558  0.2343743824758007  0.1896199540112418
  0.8340101140200764  0.7371193338249834  0.5741459588078891
  0.7204746430941599  0.1221568704999844  0.3419536662773049
  0.8554182976986465  0.7518923176427873  0.0918655116173860
  0.8524875858167105  0.2414995386910851  0.5918957204098926
  0.3492060908886181  0.3603466818782379  0.9630406277515309
  0.3441442495074760  0.4964255417950650  0.0868132460106436
  0.2329454349351535  0.3643174913549305  0.3402472635059899
  0.9804629107874694  0.8612855277217444  0.5818767923647383
  0.4767064278769905  0.9908409070567986  0.7116884666811404
  0.2249142590788988  0.8693815445470978  0.8403978999737454
  0.4780821804406569  0.7308599096983062  0.2256648534808497
  0.7274277224117001  0.6170077889359321  0.8344522771246918
  0.8555216561194863  0.3671676568554076  0.9613557832558955
  0.4748222458881771  0.7403528234087581  0.7115708011149536
  0.8271755453691908  0.7298781991819645  0.3566453032995955
  0.9749305480268606  0.4863878709876100  0.2224513702769075
  0.2227027253468133  0.8627200350824905  0.0945270654360335
  0.6012082509614738  0.8647060199912473  0.2183292452624460
  0.7066737712008527  0.2437176532665322  0.9862016900919826
  0.1081880125599683  0.4907599307506330  0.0883334869902785
  0.8526337345748332  0.9969777065240616  0.3377846331552238
  0.4931581096060051  0.2343965404173948  0.9771878497938101
  0.9757807746052642  0.6184548001898187  0.0941367449778603
  0.8595602441660705  0.9839728089336276  0.0891035540801464
  0.8489549475130971  0.9985671906788899  0.5892439009473175
  0.9806454068178425  0.4894094448418135  0.7137398451002488
  0.4764649087390548  0.7435210409978491  0.9637632303583041
  0.9782271498944167  0.2434215991835703  0.2155033767143996
  0.4765452931252535  0.2397629478156125  0.7159340337204697
  0.7100338167188455  0.3756661824712025  0.3415510987631651
  0.1043720840570622  0.2382560908664334  0.5887224255104890
  0.4751344566239006  0.4861260038093423  0.7170127067642211
  0.2277347699267908  0.1137052678672964  0.0923951991411679
  0.3499146063762831  0.8663853818835575  0.7112074984237039
  0.5999405037830515  0.9852921789547379  0.8358942757052329
  0.7282418327568165  0.4911523694724448  0.9581657818580260
  0.2229296787986574  0.7424360311165369  0.9631036566094398
  0.9772860112990654  0.3637935123866661  0.5886766816658943
  0.8440810013283320  0.2463871036200580  0.3364762397999860
  0.4727814961223987  0.6169704412948636  0.8369131780705249
  0.8541289808046058  0.1133989311352686  0.9649305042715414
  0.7277538329090278  0.2369773048423425  0.7164926460815584
  0.1031490710524051  0.1130266685771378  0.2194540144116604
  0.4763055561884982  0.1125333319563151  0.3417255473478981
  0.8500261354420316  0.8643890015069592  0.2250151022411704
  0.9808663379074024  0.6179858021491336  0.8391900645530813
  0.1014014819879712  0.7416831899841909  0.8354355590497217
  0.7250619615211379  0.3621839866980706  0.8421953454034854
  0.0976525832755750  0.8639699529975781  0.9645729111097970
  0.3495539904650317  0.1122720827693294  0.7155036841201535
  0.3546081509537732  0.1132796090135177  0.2191590595821946
  0.7280830744286536  0.9922062313987398  0.7138086921898330
  0.2318976523946162  0.2373567034080664  0.4617607045432788
  0.6042305179064807  0.8645714111823771  0.9613642264215613
  0.6032246108594315  0.4926166789274536  0.8368078577942796
  0.6040048693090030  0.7423975170121604  0.0867890187238061
  0.9767923583484596  0.2381144664366246  0.7185931657319308
  0.1030402864788943  0.6165913388837471  0.7109907843700116
  0.9770461198504847  0.8661047199249823  0.3440693625760742
  0.3620276637070948  0.2417779235634541  0.3379208037322888
  0.4737973482933766  0.8643707492435226  0.8342114653123307
  0.5886103569852762  0.2418086687831786  0.3411134380067199
  0.1048147634055215  0.3661473713044275  0.4641511360858101
  0.9792587026330904  0.1153918294293013  0.5873739583585464
  0.3448855491273971  0.6199009582508513  0.9619926537579548
  0.7278919065291415  0.7412564949767058  0.7130807467233395
  0.8524162295083956  0.8649133941412724  0.7102389905270184
  0.6010318429816608  0.6193156687502185  0.7104215749598185
  0.1064461453569728  0.3658021155494028  0.2178834799480482
  0.3549676760589300  0.3670694324136782  0.2138046654804500
  0.4733531144335942  0.1135168631640576  0.5878817724139612
  0.2275313899809594  0.8673563176627410  0.5860891439488370
  0.3522019434498571  0.7377610286703740  0.3462353876525899
  0.9794686601706817  0.9924862850439513  0.2185636929283602
  0.7225427591929774  0.2426261760454956  0.4677600065001514
  0.7227392173766461  0.7391358648495001  0.2181832738223231
  0.8464514455843306  0.6146933080645564  0.2227464241933650
  0.9755701373941733  0.1175149265149418  0.3412032456914308
  0.9778246093682221  0.7372289518507604  0.7078893813249876
  0.2261624440496673  0.3588282992156476  0.0908593982496621
  0.2239659297769563  0.3639305822673738  0.8367223497725206
  0.4699415611326100  0.3613448805888170  0.5912935525632398
  0.1070923716783591  0.4884006930749848  0.5871354845666746
  0.2254904322705216  0.9870917981864689  0.2227899445452950
  0.8565097279461190  0.8649171199907708  0.9590863568723372
  0.9758000103788056  0.7395746015930805  0.2280972647176309
  0.6012291271600858  0.7407971201687245  0.8341785844404778
  0.6031808322689602  0.1123474395198527  0.7138827866386271
  0.1066283289475773  0.2406224781008768  0.3431735324793091
  0.9787242767744320  0.9887864412937944  0.9605224067335603
  0.3526527538102737  0.2386097764098627  0.0902809796879426
  0.8481898819539758  0.2378764447528855  0.8428801317125649
  0.8442250529302615  0.3661330081848796  0.2106498572111339
  0.4756708990197410  0.6177716006354523  0.0866688869586281
  0.8524230141040261  0.3605019362192430  0.7209851640094309
  0.2281322117023437  0.4932343854078405  0.2186052630446460
  0.8496484500266898  0.1186656015753214  0.2113294040081612
  0.1045960820857923  0.4900574457144444  0.3414872436263304
  0.4688215791882069  0.6190766109962602  0.5931597572822365
  0.9797807735779378  0.9938962969898196  0.4630622437282196
  0.8559014561762494  0.9916327673115394  0.8376987227712288
  0.1033764753465457  0.8672935361866542  0.7096051944651448
  0.2282689366993923  0.6140393881614338  0.5865522695300691
  0.4757374773282373  0.8636939368904549  0.3470089272947736
  0.2238983377135528  0.6244525850671618  0.0930352401105508
  0.2269911158727252  0.6185865395037442  0.8361777890046144
  0.1015991498594449  0.9917617965238164  0.8375913191553180
  0.8541153122283022  0.1166877747862234  0.7163573579935993
  0.5980980029553805  0.3630227144061545  0.4799738404837428
  0.4721151387078719  0.1016026774151387  0.0920840083825478
  0.3542845455786739  0.6136248002010534  0.4639882834012104
  0.3520680141569275  0.7405141793015297  0.5846567896503703
  0.7301503776788457  0.7426682573715958  0.9600233897957228
  0.3479054949948011  0.6175621720287887  0.2193173354120152
  0.7235178986477567  0.8750211739138152  0.3434290130075485
  0.3508335689813211  0.9843520010524140  0.0925921596542106
  0.4777098227832541  0.1140116573138191  0.8418144903192266
  0.4752299337948414  0.3639688065615916  0.8428476952458751
  0.3483299729105480  0.6142452579139897  0.7148295594374436
  0.3496499346496546  0.9904507132147495  0.8382071992840158
  0.1045720117757343  0.2367232733674235  0.8367558670190035
  0.5950948650062514  0.9902273592012913  0.3467859211639798
  0.8513040663784102  0.3650119602387080  0.4666247319868838
  0.3521644474234641  0.1168477133939218  0.4645507289633545
  0.3538251349144805  0.4948658360802751  0.3408901088469584
  0.8526028484169833  0.1231356597364376  0.4642797543058345
  0.3502267860225135  0.7397549959452636  0.0945554554420752
  0.9802931474929979  0.4933452224303993  0.9589807174413775
  0.4780434301316033  0.8602890644745326  0.5868941980729302
  0.8499632226335363  0.4868962186727215  0.3407089058731291
  0.5969923804236806  0.1171903062896561  0.4681544064856285
  0.8497738043641917  0.8750069577505093  0.4607953804052697
  0.6019491169602458  0.4819755806382996  0.6000488725156876
  0.6019633578780795  0.8631102654809341  0.7100353364074168
  0.9787659589385749  0.9943588006565777  0.7123707711501798
  0.3481599405631755  0.7424420101922448  0.8349683428927436
  0.2271008450449156  0.7407966784054065  0.4654921665506603
  0.6033410252797825  0.2381446793115876  0.8407241534105413
  0.8536120020983560  0.4910813186214867  0.8383137461073334
  0.8545445155062456  0.4913158475061796  0.0880230990494875
  0.8550543982089764  0.6187995638923764  0.7122243222665208
  0.7261381143047423  0.8653378634168497  0.0888478641247301
  0.0991101150118112  0.8655091056264496  0.2240720785020167
  0.7290514074536644  0.3628423523598202  0.5946920119413928
  0.1058834244613239  0.3627982054204158  0.7168516186247464
  0.5983637183178855  0.9806309526017282  0.0860446641264554
  0.9781420688315231  0.3663157271353458  0.0861510474445573
  0.1029592054075412  0.7395158143909556  0.5831761545647091
  0.1042690224417128  0.6180316278623624  0.2223097532563761
  0.4712532876708101  0.4971280598745082  0.9588367558395990
  0.3443470513095354  0.3647390132981390  0.7175619388564117
  0.5990446789222162  0.4993807340157275  0.0808327869792092
  0.2287344889305510  0.4885905306595252  0.4625476704296653
  0.9802984544220138  0.1136412842547835  0.0896027258019320
  0.6012187309285982  0.2381761911421942  0.5919590138564014
  0.6027652098690074  0.0981930608534780  0.9618385343812551
  0.1028302831767389  0.1126409287198855  0.7168551000534560
  0.1018497160843463  0.2413428765115069  0.0868687696795212
  0.3526567233869052  0.1124330049298519  0.9639884432664743
  0.8535627642223993  0.2375783533246211  0.0867847508770242
  0.2291143755473322  0.3657129915628223  0.5910036077368565
  0.2230665324950601  0.9900070294736711  0.9638442371337556
  0.2300684750784985  0.2357553244916923  0.7185815670197274
  0.3472549048173594  0.8649173930869435  0.9647296084995993
  0.9769202812644483  0.2397165826305486  0.4622136677331312
  0.6064209800120230  0.3613668870422614  0.7176283627443293
  0.7316274285849388  0.9841446512627661  0.9624119489690482
  0.9781176671542833  0.3653333102377178  0.3457875154236549
  0.4725184729754567  0.8621098405417515  0.0955933128598402
  0.8563657522635462  0.7392429824757537  0.8363390503658419
  0.2286731971405537  0.2405635163004323  0.2186579342161087
  0.3523768999451979  0.3634110664076223  0.4664343951193082
  0.6018515080386287  0.6166394800258680  0.9568440232252857
  0.4759219797551696  0.3769445947040140  0.0862849610673531
  0.8547294914300916  0.6148109157777687  0.9581799753412713
  0.7292076482939880  0.8653385333451198  0.8355817634393989
  0.9792078733074934  0.8675065189545470  0.8308064729964877
  0.7292590577583875  0.6152421288545981  0.0772575945537549
  0.4859586672835732  0.2382440445255083  0.1988447947142708
  0.4732056255300410  0.9818125014321550  0.9628957090591068
  0.2249399001205167  0.7380527695747924  0.7045310429748032
  0.4843244015696899  0.3836723857559025  0.3453057670026309
  0.7275180181312904  0.1100663420773800  0.8405206474083554
