 B Cr Fe Mo Nb Ni Ti 
 1.0000000000000000
    14.5059237211907668    0.0000000000000000    0.0000000000000000
     0.0000000000000000   14.5059237211907668    0.0000000000000000
     0.0000000000000000    0.0000000000000000   14.5059237211907668
 B   Cr  Fe  Mo  Nb  Ni  Ti 
   6  56  13  26   8 142   8
Direct
  0.7290830531863458  0.7964585809217064  0.4799156284609359
  0.6039417278347582  0.4774982367039092  0.4107437591327834
  0.6021362024032320  0.2908838856075477  0.1000937308417593
  0.7280108197231762  0.6658937105494203  0.4835989842719461
  0.6034802498278257  0.4862128977127897  0.2894237079942396
  0.6022077645444467  0.1662076320543374  0.1010883188904570
  0.6020746679006315  0.9844350141529794  0.3535653416373473
  0.8562757954379185  0.9891730921977814  0.3527602675840917
  0.1008635269586059  0.6113653551507748  0.9769258828928981
  0.5985496195322312  0.8754377538492025  0.4771881556797461
  0.4857418463442618  0.7300430665068897  0.4558356305801964
  0.3469395834434372  0.3627245811560931  0.9805085523476554
  0.7305037623316395  0.5943184176798800  0.6158483521451487
  0.7315697355972584  0.9795713638280718  0.4805026606915191
  0.9832860624296930  0.4902622965546292  0.7339019620618772
  0.5972887926365608  0.5949799520626604  0.4974792914738784
  0.7372993659579792  0.3649932781626550  0.1016001756217343
  0.3537703016734411  0.2334881440448115  0.0997963555112976
  0.0954500031081178  0.6154419095791851  0.4849993737881120
  0.8602535108959763  0.8742380740683428  0.4787389829438619
  0.1107672661754065  0.9839934319507081  0.5971577289232753
  0.7295412565912051  0.8723569031100090  0.3527316616742776
  0.3491560190955824  0.6055043859386413  0.2299322539258406
  0.4737416055025527  0.8637354431907156  0.3590620328050005
  0.4723760986803571  0.3627672842749332  0.8668446783129886
  0.7321466260546171  0.8648162352256030  0.0966816736099316
  0.4704439506693285  0.3706691847205709  0.0998824141878256
  0.1027946024968932  0.2339925239335786  0.8588427771250345
  0.2260071356517111  0.1052657398712307  0.6082555344181013
  0.2290182209671745  0.9894910222479034  0.4819638267420582
  0.4747439434554029  0.1102959462783337  0.3481529861768876
  0.3523466914384154  0.9875747891813831  0.3554177274516940
  0.9793043635464694  0.3575689731456749  0.6071179745261019
  0.7072224362399655  0.5801262717475588  0.3594380903126513
  0.1041559660401783  0.3596056632793064  0.9796426768412192
  0.3517215369473339  0.7227468560887230  0.3590145237925499
  0.7366401134452740  0.0900025311991169  0.0972697427606504
  0.5970563433518988  0.0960758017109073  0.2353219743563201
  0.2274300868332795  0.6074005870211839  0.1040426921248144
  0.4946465230327345  0.2328051422253289  0.1987207703181595
  0.9811426310207938  0.8591163505601636  0.1074996625709222
  0.7364908239732529  0.9795370385362208  0.9784898903300323
  0.2263618149464851  0.9876135096171913  0.7275533898504162
  0.6066452006038052  0.4843981119833656  0.8570825224732377
  0.9807375170982994  0.7293615873446112  0.9775741500768289
  0.8612805832415945  0.3594218698728443  0.4863337403601530
  0.2189732145729988  0.8639370339096605  0.6049841960516725
  0.8575960223156284  0.1118851938148900  0.9784395344978640
  0.9827400616644193  0.4883130478397706  0.9766252572145482
  0.3546378650379753  0.8562909743771586  0.2294245151629263
  0.9864843939086614  0.2314535795549156  0.9788034886504369
  0.6308178244213756  0.7301461770509684  0.3820929599359962
  0.5027198546461032  0.5808230432133055  0.3618617785550027
  0.9778804975441534  0.4824032482489269  0.4840400087633008
  0.9778492244009156  0.2350301518399654  0.7293834017571624
  0.2261859395875641  0.2331008870086848  0.9806500441843043
  0.1050879305344569  0.6080703747410606  0.7277397454904730
  0.9789996151092988  0.6018882436650657  0.6025720205033978
  0.7314704506880784  0.4883311326212676  0.4940376455065342
  0.2287189381200176  0.8547633730336600  0.1128833358746771
  0.2338958131342732  0.4901020715958066  0.2274725606830930
  0.9832870835202741  0.7314975374482456  0.4840848277888177
  0.8599610371435727  0.9815081845779650  0.1051258174725823
  0.1052916492647634  0.7343040435347283  0.6050088302929036
  0.4791923047428697  0.4809345436170315  0.4910423620829344
  0.9820447256281060  0.6070402694409139  0.8531917221870278
  0.3512094472994360  0.1064567393303089  0.7351656613701023
  0.6064675060836799  0.9801248835867136  0.1054963816425436
  0.9765353346448862  0.2374640841986310  0.4798580764586541
  0.8566718218535458  0.5905191383448914  0.4828739410179330
  0.7296248537401326  0.1118253173878511  0.3500962378806746
  0.1042546867832442  0.1112520861817451  0.9810188167317382
  0.7324961585057758  0.3592156189012253  0.6060717865893692
  0.4745856407291667  0.4913357225036875  0.2215190667713605
  0.7313468483006038  0.8579192749167147  0.8560474251907773
  0.1044237419144613  0.9866216763068029  0.3559523228211992
  0.6058687801958443  0.8593181203384153  0.2285557827120561
  0.8588269293401423  0.3596361285891362  0.9771312263804022
  0.3537573303360407  0.9840346152855872  0.5999009975035896
  0.2331191899292333  0.8534825843062206  0.3563966934880510
  0.6228028639672751  0.7363466508026891  0.5858700502773021
  0.9792510602462713  0.9857590015871689  0.9802106203230386
  0.8352511976899810  0.7336205757353615  0.5863535838757082
  0.6074426098327884  0.1101647911818546  0.4759611744098526
  0.8521276196101363  0.1119826480360770  0.4791139604912895
  0.5977422867096708  0.4863143450486098  0.0999301952734958
  0.4798573171685031  0.7239470189139434  0.2440129994667394
  0.7306667961270932  0.6108337599223929  0.8534887979756919
  0.2303609874284959  0.2298521597512704  0.7296256490256667
  0.4824077280494853  0.7343388428501831  0.7340930353175795
  0.8526047526744031  0.8575551405777450  0.2313663348855964
  0.9792566872684504  0.7306890817733505  0.2329204520535419
  0.9800719841144677  0.7311527555907783  0.7225391128540951
  0.9776680009279917  0.4866530090535328  0.2292542753534196
  0.7120270835453031  0.2241667901098845  0.2049339055505777
  0.2240817314389104  0.9844043636747071  0.9817375413624924
  0.4785690624993896  0.9844126285656671  0.7288474821185349
  0.7127977890063315  0.2322021036018878  0.9965466858794186
  0.2269283938518293  0.4857826052893334  0.7313260432696589
  0.8313026292716108  0.7247042475717684  0.3776554019486282
  0.1051998957237901  0.8521715832641584  0.9797903764099285
  0.7189719296408701  0.3695747707411893  0.3539034077875545
  0.2293739409111233  0.4837514597810968  0.4795896282420770
  0.4754274733721011  0.7353832720690464  0.9805786132970949
  0.9785065957545880  0.2364810883423612  0.2313517744063428
  0.2327506561391504  0.2356059491877237  0.4759931267087405
  0.4744297576919440  0.4838590434939757  0.7311799002666635
  0.2315916368572505  0.2371576789332298  0.2292448115553857
  0.4903337342705495  0.2281728573561490  0.9910909376321475
  0.2279682655836859  0.7307476505645188  0.9829167773246281
  0.6032762660880175  0.1086615271073604  0.7333337333558794
  0.6043412873717428  0.3682123153017474  0.9750776666985572
  0.6010927326345783  0.3638392895902219  0.2209737006654445
  0.1016812054482759  0.2358239199265933  0.6065506042454893
  0.8479906552567877  0.2383861823832273  0.3524325966573169
  0.8544197442776850  0.1076920526157328  0.2277853654816817
  0.4767851525792028  0.6096904903583169  0.8536228698954986
  0.7291121925157024  0.1104701089023911  0.6063606543748962
  0.1060271454130639  0.1093012779896225  0.2303283011977767
  0.8595754543195445  0.6088597603028464  0.9754012661831607
  0.9799142223883910  0.8586334564487410  0.3590342825799333
  0.1037474637322940  0.8600791887804202  0.7299090046083657
  0.1040607104470606  0.8573787792611617  0.2293413210431938
  0.9831811940575357  0.3592610992705833  0.8519869885794079
  0.6062601088055500  0.8600185800889023  0.9773386428926510
  0.2310183898221331  0.1079327109811810  0.3535014618286911
  0.7306649786016403  0.1084590701449215  0.8583330588456096
  0.2279003854477083  0.8589987126464211  0.8496957780864018
  0.3584213488836683  0.3645211044386787  0.2260463967562321
  0.6067903253804822  0.7353354796572553  0.1017279498051888
  0.3500848628173978  0.9827452792105248  0.8532091457675981
  0.9806485934855396  0.8600231337841920  0.6018488674892427
  0.3509646265102839  0.1073628455958908  0.9791232787443197
  0.8599618323394487  0.2322280242429748  0.1029902716440243
  0.3525566412542334  0.8575314037846530  0.7296965819792888
  0.9777069497202047  0.6067225797051200  0.3599992721649698
  0.1049118867744242  0.4831217414830615  0.8557692110494797
  0.7325441727917920  0.4873163767516802  0.2190972152967670
  0.7309123932191723  0.9894096017333922  0.2295311566535108
  0.8572860316502973  0.1114755260724156  0.7315658897641411
  0.4746870266161794  0.6110420082211555  0.1032282661145244
  0.9796759629114453  0.9844081148932211  0.2305689569744113
  0.8524754351139178  0.8574540648033236  0.7293534814664541
  0.6066934825298260  0.7368104061724126  0.8536198922158813
  0.1044750057812690  0.3657913346520736  0.2305660453691488
  0.6068588356978389  0.2355318604606272  0.6059332490219984
  0.9812014235440375  0.1122478375980120  0.6056113043881182
  0.2250049027894716  0.7344503641507867  0.7268368003821558
  0.1027113238980428  0.8556899511785968  0.4803530980575156
  0.3594065079980266  0.6044241699694376  0.4779145138631044
  0.7306055765051054  0.7355320336365361  0.7297599316485376
  0.6056110078589445  0.6107629579965523  0.7294258918275568
  0.7300775321360200  0.8728414092712395  0.6072483138212713
  0.6031686634515572  0.3591621518461589  0.4901528737847222
  0.8582014294317423  0.4794544645575772  0.6146750949613183
  0.1030800326952181  0.7311265885979533  0.3552154630406926
  0.1053414232625108  0.2356754770703222  0.1014076563152987
  0.3517214883110896  0.3558025007128570  0.7329383359040509
  0.2259286838104561  0.6083225590063944  0.6054236860024030
  0.9804131548216624  0.1112049972435652  0.8533219289212692
  0.8575559936031831  0.7338059055131808  0.0998452924574761
  0.7282759529345734  0.7320568696567652  0.2314952242556034
  0.7308655226590043  0.7371989798181775  0.9773281849630173
  0.3472565125715141  0.4862731884335338  0.8578542093486514
  0.1019766057190828  0.1142909228574567  0.4800159405337471
  0.9824430153845737  0.1098089594123044  0.1054365746755600
  0.4755168851785110  0.0938308660872688  0.1048976048326723
  0.7284378507527809  0.3565656362578080  0.8570710537392231
  0.8527451159966440  0.6088414432266304  0.2342789196826459
  0.7328970907365484  0.4866283792221053  0.9768072511160933
  0.1036468109953167  0.3586909295442912  0.7303138469247320
  0.8571292303404787  0.3590895331036152  0.7332323715429711
  0.9785581298138698  0.3617319371323380  0.3572819363635030
  0.1024360958777386  0.4796298879598758  0.6061628731015484
  0.6013981628601708  0.9884464015321962  0.6060277646007061
  0.9792176684021091  0.8566874111596802  0.8530395464356968
  0.8554369388562899  0.9834074243371623  0.8548956419146914
  0.1048047761343064  0.9865986792282174  0.8514690302607405
  0.8570161796168112  0.4851086193798698  0.8525760494491968
  0.6061261028460092  0.9805604426197885  0.8538012583370475
  0.3498778927868477  0.7326288066424524  0.1086880627676511
  0.3494721843603581  0.6124533038058740  0.7314088501964990
  0.8571059955362272  0.9887518298394691  0.6059275051997125
  0.1004288783267353  0.3593869851705810  0.4804922137786524
  0.4813836264693739  0.8547153914389136  0.6019021345169204
  0.2256611720409608  0.6079519430051350  0.3552518025568943
  0.1050519867436223  0.7315878871309885  0.8517325441232082
  0.8569757887462971  0.2321238196329053  0.8564750048325631
  0.9804677821948768  0.6091869930793788  0.1037301108042541
  0.3546119114340617  0.8566817747442861  0.4787699596280738
  0.4777905385037423  0.1053538039731169  0.8562058445319428
  0.3501496596521940  0.9803620153727315  0.1057607824564617
  0.4754683164661284  0.9885312866986599  0.4770888796030326
  0.4770453656596972  0.3543603689985382  0.6077565180347279
  0.2258887945700898  0.6106003379461322  0.8551953112596239
  0.2276742283066067  0.7292813368321941  0.2291998636307072
  0.2280949705279897  0.3584287698274630  0.8564398604594408
  0.1042081930708582  0.9855624305941806  0.1100616446006860
  0.1033360734176448  0.4858820192642709  0.1040804004683745
  0.3563908774218229  0.2337666049310576  0.6043161775804644
  0.8513151329722908  0.3625075698197517  0.2261444465824238
  0.9821862811460932  0.9870572339444579  0.4806335516365259
  0.6079314911749646  0.6123879711903104  0.2231612152874967
  0.3563821641165902  0.4848943657906269  0.3522729555128952
  0.2258966582991433  0.7294795062847510  0.4811784469164616
  0.4748201208519375  0.6138472330179405  0.6063352215318200
  0.4752424506237468  0.4900894718713975  0.9752325380999254
  0.4799748869360941  0.1125435474947377  0.6044173119630516
  0.6060174721760465  0.8585823756851456  0.7292479198343308
  0.8567883049566900  0.7337890528723255  0.8545356672666672
  0.8584448825136467  0.8561185867888229  0.9776359760306076
  0.3490179822265695  0.7344667565822157  0.8527268300533254
  0.6046091785602393  0.4756564865089941  0.6153058856417600
  0.2277207719517453  0.1090772062020799  0.8556286880100092
  0.3559098321687837  0.1090844362820469  0.2263753157892849
  0.4736524570406458  0.9796911230225214  0.2302897195009289
  0.3520058586761807  0.4826493722692578  0.6060076075915104
  0.3652597002358354  0.2397023714584902  0.3468273861807294
  0.2305995757553711  0.9838739813227753  0.2299902080892345
  0.6010212852247865  0.2338988719385761  0.3492684837848369
  0.1027493509418790  0.2388458084240987  0.3566562532040924
  0.7287815515490363  0.2392138299952825  0.4794132466784858
  0.9836619799789217  0.3613038854281417  0.1021968094964352
  0.8556043698704309  0.4827846384735729  0.3543539194788258
  0.1063814819501583  0.6049474584115886  0.2318311808190633
  0.3491331682843505  0.6090781368705507  0.9792171181150988
  0.3496454611732664  0.4872424740829567  0.1004279762432016
  0.2231908092467226  0.4862776283167465  0.9797023001768442
  0.2286926771332674  0.3573979037494530  0.6079950070611169
  0.6059248093391447  0.0925429955471411  0.9750780030209816
  0.2283143280480774  0.1091821396946145  0.1041164512856078
  0.6034235098047523  0.3563207922182896  0.7352596112254729
  0.4816514073599042  0.2348999351433019  0.4761601651802559
  0.8541500621851128  0.2348493673571261  0.6068779302364439
  0.3524989141086258  0.2320604791926131  0.8603823254342815
  0.9804993196018218  0.1115188705423133  0.3560955479172190
  0.8554253288587388  0.6074450674685402  0.7302027126118164
  0.1046360242990033  0.7289111650908003  0.1079539079265319
  0.1019214356211683  0.1103118051643311  0.7302996618860296
  0.3453731051562651  0.8575692143397888  0.9790888001422092
  0.3575112554373338  0.1141684133197782  0.4764766045941389
  0.3582268937738619  0.3594357630657748  0.4802077511586961
  0.4751558369049905  0.8575636749675355  0.1077582297736282
  0.2304133897280043  0.3637796384717746  0.3512037151326052
  0.4763117845462427  0.8598388883277611  0.8521984512103133
  0.7291881318277235  0.4781856522974499  0.7355522684764186
  0.1011513183521192  0.4841583136948845  0.3561628296243571
  0.6041277329594484  0.2314558942649659  0.8556523273008986
  0.6047379916816884  0.6107156882765228  0.9753753889795812
  0.2262023392801728  0.3641042756044288  0.1032706221390583
  0.8596571080472274  0.4870908789010612  0.1025182026776448
  0.4730436566117492  0.9759007271251391  0.9787972125659475
  0.3489722743021635  0.7326811918715320  0.5986889462304160
  0.4880741077829913  0.3709954155967948  0.3531555016765690
  0.7313618926513423  0.9897387036167080  0.7306656350212569
  0.9772184002724721  0.9819221943825240  0.7300690221029784
  0.7357830838407393  0.6157363327605304  0.0973727632198271
  0.4796618629239887  0.2317821312769549  0.7310406815289808
  0.7306156048173018  0.2338161551852966  0.7330491449802501
