 B Cr Fe Mo Nb Ni Ti 
 1.0000000000000000
    14.5059237211907668    0.0000000000000000    0.0000000000000000
     0.0000000000000000   14.5059237211907668    0.0000000000000000
     0.0000000000000000    0.0000000000000000   14.5059237211907668
 B   Cr  Fe  Mo  Nb  Ni  Ti 
   6  56  13  26   8 142   8
Direct
  0.7281231163893184  0.6772001257287298  0.4861776905334057
  0.6038703440391140  0.4850252237792834  0.4124261300252575
  0.6018805378510337  0.1716163022552690  0.1029619624217128
  0.7302995314296093  0.8019018800295917  0.4817910529195322
  0.6058856756545532  0.4917764240543006  0.2924605453934688
  0.5991314243107830  0.2933467730438758  0.0985785621308430
  0.1058092042221783  0.9897075360622705  0.6001881940517704
  0.4704027890676874  0.3628741062044258  0.8559193979613828
  0.2207990042232076  0.7383361245379382  0.7373475629790258
  0.2265867514722658  0.9860682625938457  0.7321289510877875
  0.4740339252316191  0.9816480669614167  0.2287974536671060
  0.1069047879794848  0.8566030863481986  0.9779630101337304
  0.7100452761635189  0.5818158373949053  0.3624545283719364
  0.8556379291325605  0.1085454037871711  0.9814519802689291
  0.7355618595602996  0.9832342227872494  0.9808124055161734
  0.3570568899771884  0.1010826402547581  0.2271131146032396
  0.7324242107953438  0.8604193075094485  0.8573202159274018
  0.2281383924412033  0.3639957270827088  0.8538876288319918
  0.4766947665256854  0.6198976689868503  0.8452664138434951
  0.4705661990241074  0.3773029823860010  0.1005239024637593
  0.9782870802190882  0.6136768880704806  0.1034910252882238
  0.2311239236674731  0.4944839920578352  0.2263621384390249
  0.8580610832171076  0.3617229962727702  0.4843175389077279
  0.1013004641686966  0.2311208817550810  0.8581736167687937
  0.2269714382271719  0.6160434676587758  0.1042364313301536
  0.9865172850891214  0.2395520321638221  0.7331771199833547
  0.6001609245063013  0.5985040874204270  0.5046707216609286
  0.4718398428174421  0.4876465032037662  0.4932693953383502
  0.6043333624449434  0.9859083907595193  0.3541982818796839
  0.1001226906361043  0.3644496921096911  0.7301631414403646
  0.1000622886775820  0.6155285192781909  0.4823696702385968
  0.3560956144266429  0.8572433142139172  0.2289201083798078
  0.9818028168109463  0.6152115673596538  0.8529703717101160
  0.4734086529601554  0.4884651240992539  0.7443964080946722
  0.7376179896467232  0.4844719883238845  0.7325448333751025
  0.7389004855850668  0.4906858019586181  0.2213654289703350
  0.3552583629536393  0.7358037335899136  0.3559406548225359
  0.1063174822781686  0.6173954378317619  0.9795185603069537
  0.4730273478621409  0.9875171432708763  0.4818328788280535
  0.7321709356337078  0.6003690488878661  0.6172806751175138
  0.3447227424205904  0.7392697352270328  0.8480750260466690
  0.8580451893717082  0.5970243561471681  0.4843662810872730
  0.5991805488869270  0.8817997140616827  0.4786967551437124
  0.2225255984782106  0.4886879454807094  0.7310507021782146
  0.4732982625340327  0.4908562456295648  0.2146950973162106
  0.3372233942028029  0.4900510163111974  0.1037747750019979
  0.1104467099828776  0.9848998123560612  0.1042738187981880
  0.1011603315762936  0.7359800083023580  0.6103476279474727
  0.8508876365144401  0.8569975860950391  0.2267687875415212
  0.9784434995742356  0.2420761952942875  0.4809451074105889
  0.3560138095029823  0.9855240660135233  0.3515905073222243
  0.5977639225042941  0.0929286764583900  0.2294629194832714
  0.7326125173018059  0.9899211191084674  0.4815395267854164
  0.2301123580293179  0.2343602615234491  0.9747373303952617
  0.3403186338214648  0.4905472114972567  0.8526230270978743
  0.9824745834389959  0.8585725352763839  0.3613221741514417
  0.3509358263121335  0.9873241104690879  0.6082846119351919
  0.4751826257790516  0.8593568695045163  0.3597380425753142
  0.2236500903991426  0.8615383509774970  0.1021775860231663
  0.0997851725156749  0.9884120119597306  0.3569459434853214
  0.3462662138321478  0.2342059227844964  0.8627291469849477
  0.6019590095468603  0.8642551737170935  0.2316720526656062
  0.3631672574796562  0.3647685476777141  0.4803907567179244
  0.7319064994212974  0.4859254331841792  0.4966625033371773
  0.3488374692968648  0.1050738639196162  0.7327720301650956
  0.7321556753607321  0.8642601189786513  0.1018412400873956
  0.9838779690109815  0.4858599169673181  0.4848661192825476
  0.9842210370358119  0.9875512452271268  0.4804561598371468
  0.0995692289395398  0.4869642536876155  0.6092657295037694
  0.2239992115930460  0.7388024479083648  0.9759914178596424
  0.7288648048772126  0.0940830298434237  0.1033411059558802
  0.2263308872088145  0.8630645858101923  0.8527019580693216
  0.8608529742247261  0.4915111601704443  0.1020563736700060
  0.9810385788858527  0.3611468965997442  0.6061611968009487
  0.8548966050803851  0.9821221937748433  0.1057092081518050
  0.9764895449299833  0.7409444259393873  0.2363693043895782
  0.6106987575915866  0.3786879958528175  0.9688228986664920
  0.9756524926126031  0.4938933706446356  0.2270847356964522
  0.4967267008498372  0.2363244915080837  0.2100967953017848
  0.4752492404631594  0.7403537784178801  0.9702673790879252
  0.1046219386650288  0.3649754106161391  0.9780230046998779
  0.7143940912757957  0.3823558623033305  0.3520613232104899
  0.8314374515181109  0.7271467227349276  0.3764234335276416
  0.9830121244254107  0.9842964583111777  0.2235363211602150
  0.8579019929885946  0.9897734563530902  0.3485258323167923
  0.4764898937216461  0.9878921396478153  0.7308234804283044
  0.2281669600103730  0.2337502765871964  0.7340691007484946
  0.6209821596323082  0.7422630644130710  0.5906063106697657
  0.4942548116480807  0.3819123939363405  0.3499400843302320
  0.7344282343006836  0.6174818099198652  0.8478363750826836
  0.4727450922801875  0.4924681530470385  0.9653111555525669
  0.8564330035160704  0.1178625507852632  0.4821948333969898
  0.6064773460151679  0.1115641798636455  0.4795390885421746
  0.8412565097286666  0.7342025700618067  0.5907860554118378
  0.9787823933608417  0.9839003218275422  0.9815497564785716
  0.6247652964411365  0.7344576516755309  0.3769374160880583
  0.2291939517560600  0.8579469973498836  0.3578015561852894
  0.3586945902516915  0.1077140933355856  0.4786804692253296
  0.8599791679476154  0.3670988165247004  0.9792286119624002
  0.4981335498495796  0.5940904556158971  0.3578129029999508
  0.2233854194742484  0.8638825988520509  0.6065440111656030
  0.7129186799414039  0.2289785280901233  0.9916546818723289
  0.2307170355698977  0.2371620635186458  0.2290026063647081
  0.6034166276494133  0.3558864630380696  0.5061748136863629
  0.2306438344801435  0.2439755402556260  0.4766492541865359
  0.4772587125080130  0.6207115695151583  0.1064271404911367
  0.2330757077669818  0.4878014282393817  0.4828179114511957
  0.7145231350043022  0.2346344836240863  0.2119742262506081
  0.9795558226521635  0.2391764663690089  0.2303993627112800
  0.9794381845193302  0.3651986306408734  0.3575602160924006
  0.1030316214002111  0.1150005012648525  0.4792694691707631
  0.6124327714415641  0.6177536782684038  0.2238992806438803
  0.3530125510750390  0.4893651045677361  0.3497362023813910
  0.2282368331903011  0.7326578163617832  0.4833305050357657
  0.4760514220480748  0.6092352301022266  0.6141660244650280
  0.4860451033895343  0.7384346650047754  0.2393410103001067
  0.3453995929639874  0.8598530671139036  0.9768355683495186
  0.6074317783546140  0.8620946427394982  0.7292939057807545
  0.8590930502072520  0.7393545363516182  0.8546846023656576
  0.8562532379018580  0.8600683838884547  0.9794710243915031
  0.3434157898503701  0.6174652677607178  0.9755116149465417
  0.4801096293768750  0.7360421121893381  0.4807440725256600
  0.2260046285275012  0.9828477753279188  0.9794952515788047
  0.2263708064645276  0.1080661329094289  0.8586754043954683
  0.1017533665861968  0.4895310317262587  0.8538928330493905
  0.2286308929593121  0.3630417727117204  0.6106659799880455
  0.2300797968600237  0.3677899329462235  0.3504356330428304
  0.4804892524932526  0.8654723493884438  0.6050035852081881
  0.9773336099792775  0.7382524162958284  0.7259878346122576
  0.4765289435850966  0.1088237309990340  0.8591910827443339
  0.1039394429943625  0.7364506362683289  0.1049625356041046
  0.7297180630122343  0.8718265657360686  0.3531286460585170
  0.8600955019075084  0.9916835686355907  0.6054469682825567
  0.9809092272204736  0.4889604342266087  0.7315293393883361
  0.6022159996136133  0.0955463558084652  0.9774072231552360
  0.2286646889134018  0.6140226627609806  0.3552290124743633
  0.4797577668298790  0.1124625554432108  0.6081776798555574
  0.2292599070175548  0.9846952167930536  0.2296707339059054
  0.6030030634136515  0.2351048130606167  0.3556080491346125
  0.3659582170702066  0.2420233925854967  0.3485329380121547
  0.8571139326577805  0.4856444929788362  0.3578489054729089
  0.1036112143318493  0.1089007337623501  0.7302191463654174
  0.2275749107640478  0.7370415624398320  0.2270527639459399
  0.3538505718979381  0.2378104179258936  0.6068913139898574
  0.3472354579234526  0.6140136437970811  0.7325528447460694
  0.3520332958165678  0.6178050695724607  0.2332663943043006
  0.3527266200644669  0.2369539045656480  0.1008904859784682
  0.4752151444311232  0.0970357463008037  0.1019756471208727
  0.3487989691166917  0.3634816917343610  0.7323601159178756
  0.4768639471159996  0.2374355831851791  0.4816604783453312
  0.3553256982091877  0.3658503665994522  0.2278867267586884
  0.2300975832784741  0.1091501420170937  0.1025841535937597
  0.2243622187658662  0.4925274404850362  0.9774842286459535
  0.8580826730337122  0.2389285047690536  0.6100862915849489
  0.6028057530472156  0.9763045039211760  0.1029880362578580
  0.1029002225853747  0.2423750687392852  0.3557757049364688
  0.2224433683615228  0.6145756274571597  0.8528505174688672
  0.6021559645860463  0.3599510899358900  0.7391873538438546
  0.4714530621323645  0.3631683451819769  0.6173196768164182
  0.4799154214393895  0.1132414817632473  0.3499416921492118
  0.1017297218779187  0.3643353363589483  0.4807349519488667
  0.3457366364725681  0.3636847984418209  0.9798791642432896
  0.1029931310459306  0.4890422063022860  0.3559335443810330
  0.3493159435093454  0.9805525774041414  0.1045212987021692
  0.1053431417399960  0.4920742322622125  0.1055276602194671
  0.6047800569473304  0.6210924786759850  0.7278141898053158
  0.6060689969569332  0.6177563287685565  0.9701745978817627
  0.1004386388253136  0.7384650141848588  0.8538300749041245
  0.3519157779425929  0.4877570644479215  0.6150567108841404
  0.9819726527206712  0.3626739824152513  0.8547410089051670
  0.6053267669101342  0.3788048614225293  0.2105267754758468
  0.4760907921897232  0.8565590048593825  0.1067604986939720
  0.9843053589251820  0.1155979676744455  0.3557364964965205
  0.4783029618938586  0.8613420465796797  0.8491276700772928
  0.8590619126209521  0.6156993293607164  0.7286839891817321
  0.5997017287725451  0.2305346036968050  0.8555703422990131
  0.1041912304297927  0.9868948724694830  0.8567121850878906
  0.9813446535826997  0.3647035016081367  0.1048887022026363
  0.1050743075423790  0.2357484981874958  0.1003632353273159
  0.3542912405979558  0.8616667155969234  0.4813997410096971
  0.2267885368046750  0.1099919109154026  0.6052589533813302
  0.9789794662485714  0.1126526853472114  0.8570333119816536
  0.6091256366728869  0.4962984633705722  0.8441258415009497
  0.3500823039107392  0.9853873968342987  0.8554816840495073
  0.3516048273399376  0.1071555276951329  0.9808386147061786
  0.9824244895190718  0.8580098791396809  0.1037470976520082
  0.7298748041974613  0.1081169444231426  0.8585842192335815
  0.7284226797934716  0.1148698882636118  0.3492692268460303
  0.3526989886355584  0.8620664003295996  0.7328595291020376
  0.8559130919068106  0.2387568611409866  0.1003808662365150
  0.6019211861269957  0.4835187533428805  0.6270078113432885
  0.7363175516194153  0.3639242040406575  0.8532569764462411
  0.8525211974902337  0.1131913683720485  0.2238282440957585
  0.1055739101262705  0.3690705449488206  0.2294135563277143
  0.6077090437280396  0.8603898067394232  0.9760845036642412
  0.6064137214950632  0.2283315301898095  0.6179095125824828
  0.7367889421171492  0.4960907930461377  0.9731642600100012
  0.4813109904764759  0.7408407386671551  0.7277813820923003
  0.1017200423209679  0.8586390922520230  0.4808828063826585
  0.9791234046626858  0.2366715648092744  0.9802107283165310
  0.1051811648802686  0.6133488426283833  0.2311530449445545
  0.6037908506135452  0.1077802953881824  0.7375753053041190
  0.6089167513739638  0.4991144762825906  0.0959316143670978
  0.7349306022742356  0.3741352531772990  0.0998770063429691
  0.1021605327786383  0.2382535389749053  0.6056515799058358
  0.8473640067193564  0.2440265422367481  0.3529785045255165
  0.9805037402093950  0.8635554980515974  0.6031918776228845
  0.3454794840044298  0.7405967375513638  0.1019707558304483
  0.7318836007805993  0.1138918493383016  0.6087908311299188
  0.1066567807876022  0.1103644304235928  0.2290809089512449
  0.8602664336979426  0.6161496541922976  0.9764764103824390
  0.9818799775422808  0.7363657349649760  0.9798249956508350
  0.0997262320030832  0.8630193405530214  0.7340480576198677
  0.1078568921039271  0.8588675753522902  0.2296488550245690
  0.6075406537638049  0.9828680771614154  0.8551898025154114
  0.2252844104064571  0.6149780400027868  0.6104902572806059
  0.8489583086225714  0.6159905455300292  0.2365374757098434
  0.8591252760728443  0.1153330712893370  0.7328521902345362
  0.8517032536203617  0.3655881188831006  0.2271490959120243
  0.8565475231301488  0.2342715795914867  0.8594309835647839
  0.8593861440343070  0.8715734195526520  0.4825337197154457
  0.1048740526339544  0.7334704315130974  0.3568256987539420
  0.8602926364852740  0.4899621558388215  0.8532313363885420
  0.6080415687753933  0.7448803260720962  0.1021718494541527
  0.9774364284398964  0.6112182807120593  0.3587107356014583
  0.1011033304377884  0.6131445740702861  0.7293664959174035
  0.7287096495174258  0.7424539935620162  0.2306939551097845
  0.7332966125650955  0.8749335763721708  0.6063721301420801
  0.8562978362928951  0.7396391470937730  0.1011260553406916
  0.9790403695145903  0.6121394499869856  0.6055471870058138
  0.9830069690888452  0.1158672310330291  0.6062387852870887
  0.7375106468098569  0.3596386243360217  0.6157335658277998
  0.3575239508133848  0.6123429723029171  0.4800587862395932
  0.8629246351595499  0.3605372481377795  0.7341214647026579
  0.2265855551302096  0.3634954693947686  0.1035543729394283
  0.7322873750752470  0.2401228237951768  0.4816748888773135
  0.6034238466981768  0.9914687214297944  0.6080689071917381
  0.8545604712803796  0.8608282163151425  0.7292026858745903
  0.9794125659261920  0.7362009594068591  0.4811672664431846
  0.8536614154226243  0.9860026335983247  0.8568386057179055
  0.6071040519424500  0.7409559208167713  0.8513438116198495
  0.2278574218648422  0.1089178501861864  0.3532980520045050
  0.8601638505832472  0.4821350023707315  0.6109828451575016
  0.7329321993781628  0.7411546054926315  0.7293436180831329
  0.9816417058116736  0.4943136444760550  0.9784105721353271
  0.9805564492438787  0.1134593320283052  0.1023537252398737
  0.7321715182137235  0.7402401225779695  0.9764770486061698
  0.9791489866408022  0.8605865311646679  0.8551337847057758
  0.7286493318652001  0.9841622535414717  0.2286128891732155
  0.2278246057241526  0.9882763499421549  0.4785967916034973
  0.1048686638736031  0.1098060563773046  0.9810469714280043
  0.4749300042255641  0.9742224133575407  0.9782580281552394
  0.3596318404793760  0.7350899318951297  0.6064741971831524
  0.4878861884370058  0.2320397282482648  0.9929475178014379
  0.7341840070668948  0.9920520197999444  0.7293555880399010
  0.9768425601289552  0.9857511783364332  0.7348214209764423
  0.7340161680214599  0.6218914122798000  0.0979848179997255
  0.4756831535080279  0.2309686427049206  0.7325100083268232
  0.7329519299434474  0.2369752887919182  0.7378856153476963
