 B Cr Fe Mo Nb Ni Ti 
 1.0000000000000000
    14.5059237211907668    0.0000000000000000    0.0000000000000000
     0.0000000000000000   14.5059237211907668    0.0000000000000000
     0.0000000000000000    0.0000000000000000   14.5059237211907668
 B   Cr  Fe  Mo  Nb  Ni  Ti 
   6  56  13  26   8 142   8
Direct
  0.7226379182495780  0.6712349229651648  0.4713949572834831
  0.6022301244441813  0.4861579514002711  0.4029568708985116
  0.6008341565712751  0.1765151260879875  0.0882659275609400
  0.7245373951024294  0.7968323977035819  0.4702287574127194
  0.6029519219971364  0.4904948108461706  0.2799608099815730
  0.5999935042947271  0.2996859506286306  0.0860915087133783
  0.8520957275944275  0.3716838892261335  0.4659417225371799
  0.9853786317246892  0.9934554393015731  0.4653113303642425
  0.0930973727853955  0.1209686608277893  0.9620922058413167
  0.2314577264182152  0.1132236908373100  0.3440617140510278
  0.8553350543530212  0.8755468265356692  0.4634269336170754
  0.1019883086007147  0.8673493416315017  0.4672189991189183
  0.3527178015036160  0.9903894992302513  0.3415991615183673
  0.7284027124411446  0.4934830064687963  0.4837446662079883
  0.9789845895670999  0.6193893890060999  0.0860367189363336
  0.6025130683907045  0.6223638391588867  0.2059893031950773
  0.3472875179903653  0.4912691695994267  0.8450491846786663
  0.9775528387941156  0.1109239366483568  0.3488264586985007
  0.5967840922995130  0.9884064415555915  0.3397499176316753
  0.8557208501578261  0.4878943887921225  0.5989329642207735
  0.6025202132822419  0.8829115116230959  0.4673159631679893
  0.9779655625406329  0.8686295337517428  0.0921297463762441
  0.8537624537313706  0.5949127787864528  0.4711173091657814
  0.1066152490287922  0.6182704893627062  0.2263489578386282
  0.9765492246250923  0.1182895772840504  0.8388128766975755
  0.3511931171531831  0.6179048233919373  0.2194869955647165
  0.1008108768989227  0.6218902275102515  0.9572346871898582
  0.2280355970397195  0.7398213661638160  0.4650081327534408
  0.1010403952572740  0.4973168292361335  0.8411169901371635
  0.3526470234248639  0.6160500907414511  0.4671333331677385
  0.7338431247529925  0.3758049926362322  0.0843830428427201
  0.0958392791741660  0.7419514515229884  0.0883079480993460
  0.2228640368236912  0.7402201347671932  0.2264264171928126
  0.5961370116399737  0.4983265327753302  0.0892523901314278
  0.2262575906107687  0.9927324560155372  0.7099259257596453
  0.1035968527709799  0.6238581904968004  0.4615472908586707
  0.8509224550650600  0.3668163743276204  0.7200754068060826
  0.1033564524430923  0.9900578412972515  0.5893693861794974
  0.3511964228493861  0.7392055303616605  0.3474383290561622
  0.3549169563725820  0.3632511986105039  0.4706969115415597
  0.9778260682689186  0.9882451505240820  0.2194065867888270
  0.9782084359318581  0.7368596908510499  0.7086536921378536
  0.7243378366837423  0.8786570379937688  0.3410270495259115
  0.9802824432690398  0.6161722407409777  0.8391748564765803
  0.7023361880254531  0.5885244864160212  0.3442279470642970
  0.7309135636769267  0.0965546414478636  0.0914863671202019
  0.6217228532774998  0.7412914931750553  0.5714863745269421
  0.4697150308865037  0.1138050730343720  0.5954708895563077
  0.3577863073600430  0.1216599894866651  0.4673283931010129
  0.6003491420682397  0.2426030296545582  0.5977629169394708
  0.4678827251254150  0.4965754322121994  0.2057618278968055
  0.4729959156629245  0.9860370820748248  0.2213414673313094
  0.8608760292578236  0.9889910889015114  0.0927090478812757
  0.4776528473331723  0.9933447250740549  0.7162840622716545
  0.6260032779625843  0.7415945878313666  0.3707702315168953
  0.3491877761217749  0.6156448063785555  0.7180997330700160
  0.2289569175839964  0.9952328746386111  0.4640929231603089
  0.9769624237500100  0.2324812393332800  0.9636632837631447
  0.2406746671748459  0.3652492636822309  0.5907022286912449
  0.5932722347002828  0.1145479932078656  0.7078297619525883
  0.4794912950217400  0.7377684627727075  0.4630337959384648
  0.7289236256574639  0.4841523064212296  0.7157479370214810
  0.4724325343629869  0.4880950965661924  0.4817484319182239
  0.7305962265175657  0.9886376972738560  0.2166462461093302
  0.7241323789488860  0.8752837489711836  0.5919105643735163
  0.8480297104799205  0.4908225687183713  0.3429386777294562
  0.6040178597018424  0.9918845940753015  0.5955695005020698
  0.1038749987801134  0.7419485106282524  0.3463695605253743
  0.4695161145047796  0.9944418293331588  0.4641908042281945
  0.9773792322940027  0.4946441203011527  0.9593485554789387
  0.7258489378793967  0.6052511201083839  0.6035914435209223
  0.1030658480764678  0.2362530544763795  0.8378203250332064
  0.3517685758732342  0.2394883138620557  0.5935294311952919
  0.4723611888137453  0.2432690877475402  0.4672819785943134
  0.5981227992358472  0.6053754999304839  0.4851338304131266
  0.0982163471993236  0.3610278762705003  0.9608322442855348
  0.8262508332237947  0.7318425215219716  0.3656526372734240
  0.8532185696513989  0.9895059791290512  0.5908868868451208
  0.7110542002621340  0.2403594476253728  0.9878022235131166
  0.1084903703832271  0.9931002796813003  0.8398102294418329
  0.2231110968424969  0.8637699303385011  0.0937340271629095
  0.4896097172964531  0.3880963616340175  0.3449905142264968
  0.9742272268785589  0.4960323928192438  0.2235301266572197
  0.7271849121524426  0.1137662359753174  0.3408480465508966
  0.0987243779893327  0.4937591532227835  0.0918680917765263
  0.7290788796298689  0.8664067334459878  0.0961939027666643
  0.8571766735311411  0.3678182620701528  0.9625926382007363
  0.4789967200228429  0.7431887155689719  0.7127695064678539
  0.4994312965025460  0.5961686187191798  0.3446400736670134
  0.7281510281946996  0.6184126380530135  0.8373207645935166
  0.5937559054363318  0.1152314917722335  0.4728495750857892
  0.2296782709411419  0.3644364371329438  0.0921625817088419
  0.2261033066181107  0.6252800651246130  0.0868308927943927
  0.7129904528544374  0.3815671124492895  0.3455182752766917
  0.4701719312068012  0.4956793633211309  0.9587488814729668
  0.4780371875652333  0.7413811423407763  0.2251812115066213
  0.2313572961732528  0.3660710750760583  0.3441807458571448
  0.9781182048884099  0.7364424841794781  0.2220851092516757
  0.8327808201805179  0.7397308104443170  0.5729168737969904
  0.4746135176712463  0.8698960926430540  0.5841597557064586
  0.8505745255284567  0.2409703780975702  0.5908275461953135
  0.1022682670779269  0.2423794316389613  0.5883270936610365
  0.7155294251648848  0.2409285430791638  0.1970233666623377
  0.2294462396008797  0.1135454779551118  0.0929390846377062
  0.4767798996150887  0.4888018952943167  0.7190116324578654
  0.1038828765521536  0.4893238753554721  0.5935839858041954
  0.4864629347165811  0.2379092487539188  0.2050676784389192
  0.9761512383028351  0.2422719280055924  0.2199126256986434
  0.4764293067668317  0.7475815502763394  0.9646323623351977
  0.4723356318100106  0.3732837837266408  0.0850312601722888
  0.8533188365995469  0.1179284416052498  0.4657811097344587
  0.3517167636252851  0.7465693518752728  0.0949002783470987
  0.2252224956280570  0.4920475908716246  0.9605434984652125
  0.4765807645638114  0.8657597105688671  0.3480829133426954
  0.4739124580151838  0.6208807024657043  0.5918001318226990
  0.7248713874095823  0.1184613716569870  0.5936528652164625
  0.5992599264982692  0.1012421451250034  0.2121030282973791
  0.9784282590494533  0.8629914111649450  0.5897932177189104
  0.6044985735829754  0.8669565593251294  0.7129654637146144
  0.9783332455481215  0.9922720967775897  0.7138864671663423
  0.3497835225112140  0.7443281603447902  0.8365842506036716
  0.9748329089370456  0.6159149832640476  0.3500248960414055
  0.6015277548764217  0.2366425507111995  0.8409706676662529
  0.3499766571224694  0.1131522680734065  0.7152469293957041
  0.5994991757350735  0.3750465642519692  0.2035325411543349
  0.9744287298372015  0.3655890425113319  0.0910933252579432
  0.1000004641331518  0.8676526143767733  0.9661343085567839
  0.8552262454239069  0.1162120195161364  0.7157146178089684
  0.7271747980857235  0.3632269302576157  0.5957898097395327
  0.4731897847194722  0.1033863734584553  0.0912476071364528
  0.2283820766567732  0.6139118139497479  0.3446983132242129
  0.2261180719484856  0.8654056071499050  0.3445748401190464
  0.7311285097514985  0.7441193471828133  0.9631362644182697
  0.8525173170087199  0.4934911831216521  0.8390658544432489
  0.7288236107522420  0.9969948305903031  0.4688884021096046
  0.3535704752605852  0.1142158452259579  0.9645369666473389
  0.4783220186056221  0.1156327371284124  0.8386139737559860
  0.5999249680120999  0.3634309222121684  0.4804548489125053
  0.3481178479427762  0.4944264545151869  0.5922419617601684
  0.2296472477918280  0.4912244512227985  0.7194657559528739
  0.1021212261572797  0.2404855688914514  0.0933304455332735
  0.6010443686053576  0.9822339522256665  0.0919869182249480
  0.9770929532605617  0.7418449786804091  0.4662050452685780
  0.1010854107163222  0.8668408358821719  0.2220520542346987
  0.8550720457685873  0.7399029867669120  0.8387506736418651
  0.6036495753972307  0.6197709926951477  0.9640031545902046
  0.3485834808288497  0.9920367017677645  0.8382125766037231
  0.9774138750437935  0.3650626334657364  0.8350178997906268
  0.2268292311654234  0.6181342084245818  0.8394430555715717
  0.9774170718666002  0.6174085559018931  0.5892719128094777
  0.9764395579345386  0.3687186184115966  0.3451799404948341
  0.6050343068049505  0.4933697563655606  0.8422329065205192
  0.4763305685202935  0.1159729130591853  0.3401890994961319
  0.2293560964615417  0.4918239314444572  0.4658116956969094
  0.8581902788843117  0.4953662745740594  0.0891369537895937
  0.9797123067715157  0.4879475935346614  0.4670915910108990
  0.3477053349965893  0.8667283731796493  0.4638331891874161
  0.3500053555087230  0.3644864145441222  0.7186208119840083
  0.9797964851807166  0.1136498530856086  0.0930319289904958
  0.2261533051186274  0.1160012208180442  0.8407075930585839
  0.4785655251872021  0.3604490323566937  0.8440030145597275
  0.3520380817494330  0.9846993909615059  0.0961011434210319
  0.1039749103063858  0.3657636028849844  0.7200265080181328
  0.3558315151861777  0.3670761084676434  0.2158781121336441
  0.3472419834759575  0.8679501851241875  0.9636570032156641
  0.7328686665457931  0.9860224485969108  0.9654338039995057
  0.4754561087622933  0.8665325536357772  0.0953636031003665
  0.3504059050520913  0.4935405884201415  0.3433580665702138
  0.8554465240862298  0.7441629591506765  0.0913018696096396
  0.2283547925304008  0.2407420414878653  0.2197536088149263
  0.3479863274726125  0.4944459351792201  0.0872326995523498
  0.6036730774428204  0.3614430226380548  0.7211854482620594
  0.3498820518948606  0.8650922832685214  0.2221783006618415
  0.2257216526951936  0.9914882034049081  0.9669377793068630
  0.8559083298897234  0.9914919939392386  0.3399466295442864
  0.2297386479754841  0.1153907870910375  0.5903056062170856
  0.2267263527484250  0.2396212548467110  0.7155367839495432
  0.8568078536138165  0.2348567403270321  0.0882035847905534
  0.6021042920702400  0.0994033380969076  0.9652955408745787
  0.2240976850457745  0.7466166101237702  0.9606774636907136
  0.6050877518714992  0.8681529429985947  0.9641209322224581
  0.1041299044848313  0.9901097747530594  0.3423088446221526
  0.7281654486040086  0.9939367230491324  0.7152171456275234
  0.1057429028618610  0.1141786067977716  0.4640773275814384
  0.6010706990771162  0.3761125539317210  0.9628477816324347
  0.6043487667227990  0.7447618041708362  0.0894346908193012
  0.9763304346647410  0.2409353318501982  0.7181528987994940
  0.1022576606522166  0.6179286386172548  0.7179600536549650
  0.3533225893428419  0.1133858343709636  0.2184008708734603
  0.6017377790006914  0.4856194655407305  0.6004315288797053
  0.4744271659015912  0.8682302165774299  0.8345503955703624
  0.1056949003790389  0.2371254649068512  0.3433769033882776
  0.1038632645052553  0.3642760031543871  0.4624983253201805
  0.9761429532969179  0.9907838763438099  0.9652268559299770
  0.6020330705074795  0.8651990985221392  0.2207592948685377
  0.3542824523302350  0.2401445874194622  0.0884875296097929
  0.6038204033176706  0.7444171177066036  0.8386042466786289
  0.8472325403829528  0.3698210844186627  0.2157384488318551
  0.8497444543545095  0.2401068635424730  0.8431114607912298
  0.7252277692358378  0.3626375918655332  0.8423201014425978
  0.3491673332200394  0.8690611237072634  0.7151898920305049
  0.6013210313945175  0.9884419769804214  0.8369136791902898
  0.7302702802875790  0.4955664958960735  0.9627368239894936
  0.2265440412018063  0.8679984594573067  0.8379603684102560
  0.9737537126833319  0.3653713358322482  0.5938293013405745
  0.8441221930627242  0.2463324662434495  0.3414215460012597
  0.0981904873663314  0.9900231715721297  0.0919379025669787
  0.4786930016863570  0.6199444588612222  0.8395595880568228
  0.7273646803729164  0.2386751729345131  0.7177881286647213
  0.1018259303508166  0.1116839862166247  0.2212063779800301
  0.9745236761362003  0.7425960217666975  0.9650605318000108
  0.8529510967244823  0.8641260288229718  0.2224060772486793
  0.2263485441643167  0.3664984937108607  0.8392384269302380
  0.0982069352063359  0.7456776552717017  0.8402356181560753
  0.8533425003067642  0.1130969238794144  0.9671731423574631
  0.4715917740523258  0.6210568766495383  0.0896733336220591
  0.0999840517392614  0.8681446225685887  0.7104179123571602
  0.3506453282257074  0.3631515944151873  0.9653166813459224
  0.2261671003980675  0.9884658108498091  0.2212883795514818
  0.9777665247538259  0.8659058016808174  0.3454343648955446
  0.8463248223329543  0.6178844527839408  0.2224876225781261
  0.1023373372138122  0.7402246572128229  0.5863867120408636
  0.5979272197660881  0.2434239519236199  0.3440955274443268
  0.9753148144256187  0.2417769221409089  0.4617501226498665
  0.2252185845095490  0.2387324065148712  0.9634131719885902
  0.9766985994853112  0.4913874427299785  0.7190562437295952
  0.4751854767843522  0.2406952186171802  0.7155398929187337
  0.7250354254255549  0.7409607710263231  0.2212346888885585
  0.1046459188171528  0.3666915140862526  0.2210719523368276
  0.2281527957846862  0.8674245587913770  0.5865291408869897
  0.4733825433605880  0.3601526498929513  0.5954017282336104
  0.8570238995461142  0.6188475862307896  0.9615405418758926
  0.1016253640269771  0.1147064123681610  0.7143726234580867
  0.8543332199616495  0.8650736414925952  0.9681210141314252
  0.2323779480558574  0.2391436306596124  0.4644367377863527
  0.7304453632619583  0.4933109853713933  0.2066716887514841
  0.9790603658337946  0.1156129537064790  0.5896094854405928
  0.3480081453711448  0.6219643361951718  0.9610681499146199
  0.8542007203956887  0.6174000397492141  0.7146020017323900
  0.7288181086949747  0.7426658452180555  0.7137233389208950
  0.3575257306151483  0.2425835031867667  0.3390311233698338
  0.2285485339103725  0.6179413993753482  0.5904363245894121
  0.3489738571487656  0.9913770135333311  0.5889250109130475
  0.7246476857394333  0.2444437353960986  0.4678662190686094
  0.8528986511405499  0.8636097972874488  0.7112514440260135
  0.2296845306301271  0.4934530981700618  0.2197382475248803
  0.3502550187271374  0.7406334078375376  0.5875679651929610
  0.6033260742840796  0.6204628326624146  0.7148073848115771
  0.1042265858294244  0.4934464344016534  0.3446261335261274
  0.8557000441070534  0.9919878113045715  0.8404632635340815
  0.8536606798473062  0.1116885133457527  0.2171950071491239
  0.2205697171201016  0.7464632277973069  0.7135504193788751
  0.4935643037743915  0.2353003212821085  0.9782036479838840
  0.7303475090686937  0.8684150381257454  0.8372998869797593
  0.9731437507729720  0.8656029405372098  0.8391585273476022
  0.7355986117992650  0.6204145842035580  0.0841682320342461
  0.3495280397952999  0.2393807024926437  0.8389218814714556
  0.4724533923513535  0.9854383816435272  0.9616260009847352
  0.7296336276271004  0.1127676664412385  0.8413053274387441
