 B Cr Fe Mo Nb Ni Ti 
 1.0000000000000000
    14.5059237211907668    0.0000000000000000    0.0000000000000000
     0.0000000000000000   14.5059237211907668    0.0000000000000000
     0.0000000000000000    0.0000000000000000   14.5059237211907668
 B   Cr  Fe  Mo  Nb  Ni  Ti 
   6  56  13  26   8 142   8
Direct
  0.7250976408907087  0.6725609326731025  0.4702866747927377
  0.6045028689737172  0.4930479718284791  0.2765859406894545
  0.6045069114464670  0.2943455223771951  0.0902457404945156
  0.7288812780103968  0.8069290670231478  0.4684353117953964
  0.6016508282522667  0.4879118850472423  0.3984563980751871
  0.6036051083637659  0.1719851964612217  0.0912105323322876
  0.1001049075480498  0.7423373600210292  0.0948584985048568
  0.6035729876305287  0.3617331063300197  0.4842970250301370
  0.7318955374078322  0.0021748232861775  0.7118748675189029
  0.2238737781706119  0.4897688232565210  0.9637958938492028
  0.2270502833341359  0.4896619070485345  0.2086233768683320
  0.9769629212081076  0.9850002741920962  0.2161629535806441
  0.6008228177641050  0.9847460556136542  0.3383121596133188
  0.8565335299369057  0.9909100954623867  0.3392018151461120
  0.4731475881275943  0.3707403084674789  0.0821444176550560
  0.9777585646815121  0.6136149783812980  0.0884454747664840
  0.5075826921957276  0.2397292812123563  0.9913583020509298
  0.2314063269012909  0.8660260549005154  0.3438824976914527
  0.2349896132892843  0.9884916844675201  0.4695727687985142
  0.4638783605042567  0.9886039787334013  0.4660075331924901
  0.8564637622563709  0.4856983706054874  0.5986741219597854
  0.1034065861098258  0.4889485611656810  0.8419567546562219
  0.8552789689597471  0.5939536042016230  0.4725196174098951
  0.9723926396867769  0.3699404132365421  0.3459827819469501
  0.3539870427764368  0.4956372719669023  0.3281415876171779
  0.4755965983020072  0.4846672982028847  0.4864229072204161
  0.8510121440235174  0.4904618381250700  0.3409978618056431
  0.8257259155846833  0.7375458752519843  0.5680538357266233
  0.9795969119955672  0.1139420444840586  0.8387331037843464
  0.9793756957061426  0.8657895494991581  0.0920493343441548
  0.7287508977056140  0.6052898073726852  0.6061324995035100
  0.6047513497805188  0.3749940342655511  0.9600103586846115
  0.2270997378620939  0.6164724919792932  0.0953311876339211
  0.0975172768807788  0.9849954205988348  0.0968212999820228
  0.3567524805965971  0.9881534680552575  0.5903943073284786
  0.3450143753589073  0.4969496246521409  0.0929656844668756
  0.1062156924477176  0.3733611563185422  0.7219236884296918
  0.7320583675346896  0.4824276838848939  0.7175832995471069
  0.6033062105623842  0.0944236016537558  0.2217476475100689
  0.7258966424290855  0.4955253073203965  0.4840224880605418
  0.2279211263102271  0.1083082855956057  0.0872830736196427
  0.3525955170227608  0.8655725997082105  0.2176870614868752
  0.5984664006492270  0.8871291356724610  0.4685135439182004
  0.7084587353911498  0.5844011599910103  0.3453010662989653
  0.9809165677995623  0.6144142339590065  0.8394755615049704
  0.2309752755050718  0.7400387824482689  0.4642494605702457
  0.8504961278764018  0.3728189465217174  0.4631696231540005
  0.3547777437625235  0.8609228593695752  0.4647088566582944
  0.7332732932946725  0.9853140675255621  0.4662158108115724
  0.8560682753425489  0.4912196951819512  0.8383882245341834
  0.4774595809930310  0.9828188251086744  0.2199363182853722
  0.8537650584908208  0.1131898023534303  0.4628371571497734
  0.4763591077092780  0.9899138097462707  0.7155239757744078
  0.5996614032710237  0.9866204762098308  0.5991458759465580
  0.7316683244447446  0.8814855612369102  0.5992603773707663
  0.9780236817628264  0.8711303903851726  0.5881970206905142
  0.4827345110340144  0.7374285326911983  0.2151020251452864
  0.0991920914571696  0.1139602809112339  0.9670711612703132
  0.1047290803203193  0.3685806954206495  0.9671029726958532
  0.2243808375406205  0.4851854206366047  0.7190172601442555
  0.7331913603758194  0.9881369179630952  0.2201874850960133
  0.3546847166540518  0.2392661431860404  0.5946219309915753
  0.8558583908477551  0.8778535457538471  0.4665694710400829
  0.9800529612341560  0.6092266901602013  0.5915392914723704
  0.8571609711114755  0.4899079563819467  0.0886975032652450
  0.5970489459487281  0.6046943715561740  0.4837557353195323
  0.7313000892125575  0.8764097803467735  0.3377668666081581
  0.8585005362066317  0.1143502454407539  0.7166540658677379
  0.4767886170917737  0.3567417156378774  0.5951151820697519
  0.3567226434155407  0.9862259990127071  0.3382119493439416
  0.8540302576242269  0.8642016757238351  0.2193367042265394
  0.3591628541495401  0.6197332374563045  0.2101997391126559
  0.4774191108156461  0.6173764924216921  0.0912150451224060
  0.6020006899215045  0.0992346168965806  0.9623602397667490
  0.6019215462989328  0.4934826330475953  0.0842283508931503
  0.8286775404994138  0.7316173353820601  0.3643790386838784
  0.9712905894858390  0.7382201157375761  0.6950133379948169
  0.2279902749538534  0.9913982258488360  0.7138398518464161
  0.8579708265736569  0.1108416191429506  0.9641634523681397
  0.2326729412330687  0.3658745572484278  0.3401356405827461
  0.7314592805314880  0.8655632700940666  0.0931032984464539
  0.7095592321754204  0.3779256865544612  0.3441743346433637
  0.2249419037962013  0.9924804329326068  0.9687676750598792
  0.9749536273686069  0.4919917052362069  0.2126064964024952
  0.9783230495713539  0.7412157694758572  0.4758475372610746
  0.1052830257048979  0.2385492634761084  0.8424818455937769
  0.8548364115623038  0.3679411342184818  0.9666854669253452
  0.4788513539367658  0.7416390176311911  0.7182240211250466
  0.6238733676000987  0.7422883624391848  0.3610359405774279
  0.7325288325759741  0.6147592755758375  0.8376344615117918
  0.8583191253315536  0.2389746338838171  0.5859629743604031
  0.2216053090601115  0.7383310061092926  0.9698088568350057
  0.7097891214292684  0.2330062279409993  0.2005156696400336
  0.4954659557255481  0.5999438802634675  0.3430126428829577
  0.4765868608860442  0.4914328577779892  0.9661185483304848
  0.6008988259341305  0.1075548275535500  0.4662180216478636
  0.2326382669607350  0.1065902023321472  0.3454250754371362
  0.9738714703118451  0.7408951109319426  0.2231021502157656
  0.2311488717312345  0.6183215817301706  0.3324236137112529
  0.6232776377920541  0.7463426058632883  0.5752523218982856
  0.3609904038130566  0.6190446888927601  0.4724709793826346
  0.2310376514963038  0.2396947554418352  0.2079979217309708
  0.4760814641154569  0.4867015689861652  0.7217472651900676
  0.1016345682665921  0.2372852364240040  0.5886466566292106
  0.4891870878440558  0.3799108129986429  0.3450892459107859
  0.9781566284345417  0.2392611105433501  0.2178487534394860
  0.4777842468710407  0.7413477640295402  0.9676875274038910
  0.2253729910491829  0.4847443976542706  0.4761594361180628
  0.7079555571248147  0.2352353827921702  0.9753185074459850
  0.5990456881584748  0.3721852769660633  0.2037943963155177
  0.8581812682695846  0.9873305637747719  0.0926097807864114
  0.3508261693348774  0.7424193170193673  0.0933531274081730
  0.2278449808816431  0.7436547272134589  0.2153200551449345
  0.2265769170975065  0.8651775842558594  0.0931683432530108
  0.4785842000679502  0.6194122281535724  0.5998371668691111
  0.4813535724267392  0.7427480120792956  0.4674983503656297
  0.4784149175728196  0.1122362467092449  0.8415009204667274
  0.8561566418709947  0.9961332348980626  0.5916617831730654
  0.6034743007451452  0.8635972100689556  0.7171151106276106
  0.1027600710165378  0.9907436313898317  0.8406886780679150
  0.3496344367757698  0.7411913176542327  0.8403152550102636
  0.9782090556033601  0.6127862320408449  0.3456779533768957
  0.7286653835263162  0.3742449715432518  0.0883328400609480
  0.3537741496694582  0.1134329988083308  0.7161368428652027
  0.1010099617615735  0.6147895946202078  0.9661137637553072
  0.8591116934374786  0.7399281538305772  0.8403162598287814
  0.7336323792482266  0.7413668982126412  0.9636660246525214
  0.0981649068717373  0.7394129378172587  0.8395416115757749
  0.9785657512285438  0.9916806621047488  0.7147058424958550
  0.4758920985258678  0.1136673771132179  0.5955783465192335
  0.7286262621984283  0.3602373955036419  0.5967647334650185
  0.6067149134190315  0.6188984843464131  0.2056892072323890
  0.1014870607486739  0.6157294915664878  0.2152932884987731
  0.4767831189240607  0.8643662429207335  0.5937122504201019
  0.4783901811818799  0.1014277101200852  0.0910833287591845
  0.3571196641613152  0.3615331911701921  0.4723592218752598
  0.3602788846201296  0.7401420116002726  0.3364314545898415
  0.9787184899199319  0.7391160555389705  0.9678574024307348
  0.8530925032937933  0.2379518820122165  0.8436896775399892
  0.2279924767243942  0.3677661038764024  0.0862643778838315
  0.4781427497780335  0.8640823290053617  0.0959508237990705
  0.3597330742830380  0.3666008185154697  0.2082503500410798
  0.6056140311700899  0.6171312957119126  0.9625154937546604
  0.3491774447588386  0.6160389959820979  0.7196745408249262
  0.1010473119402435  0.2387365376667159  0.0862199042182758
  0.3568701162735147  0.1124664017735516  0.9678843892414981
  0.1042529909618489  0.8648467469774647  0.2199045240116251
  0.6031144212853194  0.9823855072163886  0.0915267760207434
  0.6001186879926987  0.2346349548048711  0.3406724167450855
  0.4796249584415341  0.8605175679327541  0.3415604092401510
  0.1026591770042421  0.4906008172209471  0.3385537611233683
  0.2260129443658304  0.6133276735930774  0.8418763216005281
  0.1034574043247825  0.9865642599376604  0.3412485878008970
  0.1021041597056166  0.8643526717707585  0.9677180163312663
  0.2307918932059156  0.3599835388262104  0.5986246848742626
  0.9774878785427095  0.2411385017752674  0.7185085186947358
  0.2330044197314584  0.1135247149036817  0.5902679153115321
  0.6028412927340446  0.4858337552674856  0.6041256312225334
  0.3490208961956854  0.8639824738951781  0.9660567513971067
  0.8512042571779342  0.1122848250409297  0.2156257911669514
  0.1044426738220637  0.6155009745204013  0.4676176520396513
  0.9798829668079553  0.3655789486647835  0.0891412910049028
  0.9794934591493932  0.4913232598934467  0.9638546190752657
  0.5951641780529995  0.2358201238881016  0.8409652020162851
  0.3495220030165018  0.3612536695694367  0.7194270928633859
  0.3515304833529681  0.4885776619743162  0.5998078706957082
  0.1078426366975238  0.8672632495616952  0.4664590934792759
  0.2294813474915026  0.2357631304812945  0.7171658674901422
  0.9828720441236745  0.4867403722603263  0.4685109719565143
  0.9800853398230122  0.9891450667419724  0.9673138491705340
  0.7299850012090605  0.7414720728683072  0.2169462900022521
  0.4769512151995303  0.3594094032417974  0.8466070689849103
  0.6063360658187631  0.4926406877996873  0.8397129184277277
  0.3521049779309754  0.9891156741677219  0.8396601219001978
  0.9799372568546133  0.3648463085540777  0.8410470042311928
  0.8558724088332105  0.6153526627579055  0.7133440829228866
  0.3530339421424398  0.9849184307671952  0.0939252693688335
  0.7290219012124559  0.0983396578458156  0.0914879549389469
  0.7315692079768871  0.9861689002773891  0.9637830784866883
  0.4745578493438541  0.1114763838683780  0.3395073127239749
  0.4742799451762303  0.6173871249495804  0.8405197012706880
  0.1025506743084778  0.7422595336463333  0.3444060948035836
  0.3562351481967061  0.1088209123751954  0.2120322498355321
  0.5988486751663797  0.1120487706914075  0.7176837765243391
  0.1040612835372176  0.1120073920578473  0.4641990566155668
  0.9792206911305525  0.1127477377778281  0.0914687550311652
  0.7314287033454854  0.4928038465158107  0.2059195843912831
  0.7265664828044336  0.1105590983805353  0.8421400827289249
  0.1037992605086417  0.1124513605332581  0.7160256419777966
  0.6049452723995072  0.8643158609035969  0.9641063529705997
  0.6057172290765682  0.7424957681512445  0.0894360984029471
  0.4794902818300756  0.2385941955346607  0.4692981027259864
  0.1030828279255299  0.6133923926823804  0.7167428507502113
  0.9743538729979243  0.2398504925117397  0.4588853821132717
  0.8511204077412549  0.2379799084473030  0.0905682004524805
  0.2268849457521646  0.2372765341588051  0.9699648366979863
  0.1100131815501301  0.7401756741787966  0.5888674169329416
  0.3493853555224543  0.3653455073565877  0.9667611383222371
  0.2278655989843339  0.9885586904763094  0.2165067382359341
  0.8556563705713996  0.3625789301402766  0.7191731388084787
  0.2262718403668126  0.8655115706118348  0.8405225946360066
  0.6048167301898602  0.9875311676770578  0.8364305633835736
  0.7311868443971690  0.4932614700856242  0.9635313729046335
  0.2298785195249816  0.1133460284785149  0.8416717962141035
  0.9791496141520615  0.3665935111938509  0.5935002777710018
  0.8420429713964024  0.2438211717468634  0.3402909968493835
  0.6040166773650839  0.8609653480565104  0.2177035437977793
  0.0989941284537692  0.3621280252283390  0.4641335376395588
  0.7290800126167828  0.1145760718675301  0.5903524212122297
  0.1037607204811953  0.1088505444323648  0.2168385154547097
  0.3472496033140608  0.6158616880574637  0.9639792104355300
  0.9769491640177744  0.8660495558464976  0.3457793188854267
  0.2294067975986275  0.3637858832437338  0.8431367645567959
  0.9793324781863245  0.9923987159644079  0.4655808271598826
  0.4763376200171507  0.8666797351496629  0.8377288902702472
  0.6028929917819802  0.2355467220371516  0.5956037243028647
  0.8572544418602716  0.7402021842262969  0.0892483616885580
  0.6042548990311101  0.7406842528817970  0.8397928081640090
  0.1023114188389216  0.8662281089472187  0.7130494457734939
  0.9786181570096185  0.1124556100180386  0.3410668171214674
  0.3530576170763310  0.7427347119506086  0.5957528046578424
  0.8536876223396621  0.9899264523260414  0.8386289501257012
  0.1041086155684677  0.4920427523395307  0.0889013697227292
  0.1011676447892101  0.4898591038493106  0.5981141288023618
  0.1061718074323423  0.9894059312692227  0.5894078612450636
  0.9781622381318956  0.4894313247353544  0.7202285125872091
  0.2280640773640553  0.6159766688553384  0.5961189413839372
  0.9791265520954776  0.1123952780874275  0.5901460715019254
  0.3462585203032040  0.4900350682844968  0.8432817464804702
  0.7354233014235773  0.7426622129392580  0.7154581791291360
  0.3625474458906291  0.2399431959625644  0.3396058831386856
  0.3561469914769300  0.1174007462727456  0.4696214811464521
  0.8458532476935329  0.3656509738226262  0.2141895599063690
  0.8547499226009915  0.8685407956784634  0.7122487349638085
  0.6044834467384056  0.6196478283722793  0.7190968258075509
  0.8483614248637147  0.6168195427464566  0.2213158752800801
  0.4775177857148398  0.4930844984583359  0.2025639343938640
  0.3577791455605829  0.2371936324620831  0.0828223742310323
  0.1039173592577268  0.2390943728207387  0.3434109515979097
  0.4758470920092829  0.2384485787806756  0.7158305940685482
  0.7280579762562773  0.3658555196153925  0.8416422713141960
  0.9767331939830040  0.2404486520322607  0.9671305875002297
  0.1021871666392341  0.3686721145155755  0.2136069763629526
  0.7261581776719110  0.2405885886229338  0.4678227777568352
  0.6015799927977168  0.3608330406711343  0.7209176869479231
  0.8569897644804189  0.8637391791642764  0.9672075188542782
  0.3527169230953637  0.8661486741321173  0.7178450842431748
  0.2302346615202251  0.8646102078768544  0.5891424880914871
  0.2336930654807536  0.2397676454760183  0.4644398172642528
  0.8590103953013696  0.6162006193587991  0.9633545603205032
  0.7294949316948721  0.1150854556082574  0.3410643346001840
  0.3553237571786034  0.2365191335184821  0.8461346284735020
  0.4752781963981043  0.9837816904523962  0.9646694005705756
  0.2235896560423549  0.7420448380798305  0.7182654429474490
  0.4877807465941484  0.2321004897040504  0.1998785189366594
  0.7303472716560327  0.8638037193035624  0.8401719798105889
  0.9806818097805808  0.8699924108743635  0.8414894417089370
  0.7328125478227003  0.6199449655451790  0.0859952557251902
  0.7251075115574306  0.2358328344250927  0.7254566845401726
