 B Cr Fe Mo Nb Ni Ti 
 1.0000000000000000
    14.5059237211907668    0.0000000000000000    0.0000000000000000
     0.0000000000000000   14.5059237211907668    0.0000000000000000
     0.0000000000000000    0.0000000000000000   14.5059237211907668
 B   Cr  Fe  Mo  Nb  Ni  Ti 
   6  56  13  26   8 142   8
Direct
  0.7332803508640919  0.8026320637162914  0.4850964629336447
  0.6007871604216820  0.4912809538119584  0.4140221544296623
  0.6096377675371165  0.1804818815320320  0.1088483810493262
  0.7304995946314975  0.6762904975429376  0.4876585230355135
  0.6064482115643636  0.4963827560914914  0.2922935367089144
  0.6075842079657715  0.3035951765381633  0.1024647519815271
  0.7383311403412716  0.8583161595533766  0.8578925194134203
  0.9739968878251665  0.9887020979431878  0.7271188311040905
  0.8696372788816121  0.9951466418434733  0.6069709034759904
  0.7098283287239014  0.5873621346726466  0.3622750351135994
  0.6014176027822540  0.8636543058011127  0.2347517235586976
  0.4766119448550200  0.6146286574475563  0.1065315196514688
  0.7017469826137782  0.2334909150074400  0.0038206449742603
  0.4728441079706974  0.3788628508458470  0.0998031283228403
  0.4834713465090912  0.4937446741526724  0.7336175288393688
  0.2296065673687134  0.7369579751690842  0.9826535119841161
  0.7338037707555983  0.0957654274432336  0.1066551791788029
  0.3565802955114100  0.8538037996391561  0.2418606067840373
  0.4768136260926206  0.8600020658534145  0.3607655481575763
  0.9797043904733718  0.7403387986853482  0.7292376737178304
  0.6129131522429530  0.3786601112218397  0.9724112651329007
  0.9800047132617922  0.8666739357980341  0.1141537538323289
  0.6103670146199002  0.3657264351921470  0.4983753590399599
  0.8643106154131441  0.6189589150687167  0.7309468663898359
  0.9798527644878805  0.1128718259108170  0.6088704891114604
  0.9815945787217787  0.4921209981070225  0.7382787055683172
  0.9809204319260560  0.2395029954518150  0.7349628241609771
  0.7272810829036477  0.5011121600422961  0.4959824619559485
  0.2247758450106224  0.6170010345876032  0.1094032129582603
  0.2282453028059011  0.4941087663354323  0.2311803214340464
  0.1058818513896963  0.6150958851111070  0.2377706966354655
  0.2309581097894566  0.2370526562741313  0.9805714399720161
  0.9792039641124707  0.6149937407872137  0.8534948267672059
  0.6115905539819141  0.0966532195671319  0.9825715812219595
  0.7339085692282428  0.4870915953008097  0.7386321229048226
  0.3468597031551082  0.4952950899674937  0.1044075290783120
  0.6027456075714316  0.4867846257631693  0.0981610203884035
  0.2283656322049981  0.3606947852297306  0.8553613857198995
  0.6049950630643751  0.0946828784310712  0.2339850224969806
  0.1115848743246890  0.3761303057104509  0.2323621058393537
  0.9825971982937189  0.6138786917533261  0.6089726495927492
  0.5981821942493262  0.6043546700200195  0.5049774934828947
  0.4769648720803957  0.8745206441844326  0.8478363902417114
  0.3559933276345498  0.7414742103936414  0.6116541321102990
  0.2242661167549678  0.6204555106559790  0.8555796608002436
  0.6016285804456689  0.8825169479116516  0.4836238207249404
  0.4841642980584266  0.9823866347537118  0.7336289246569230
  0.3522674379426532  0.9838881566685498  0.3559076641393712
  0.7344129485908342  0.8800914009491934  0.3531033284584740
  0.7361356841315250  0.9935175758323294  0.2326951760698517
  0.9781589868504386  0.9884629185720091  0.2352380089505084
  0.1023450727406022  0.9910088596870174  0.6088765338917951
  0.2259615131812170  0.9859523757489469  0.4853152326012293
  0.3504655149521659  0.9823270102888755  0.8622630041434598
  0.6048602333341363  0.9798116373720275  0.3584891547831077
  0.2250522357851903  0.7438866961294399  0.7312481484906750
  0.3491916219837339  0.3601288252446671  0.7340882914529908
  0.4803112442318902  0.1016778692476785  0.1054692007059491
  0.4800763528600638  0.4993429461740709  0.9868949607928204
  0.1037425029982350  0.8675175538910234  0.4842640608043230
  0.8619603365839020  0.6007093511883377  0.4876795192954613
  0.9837869951496226  0.6160614783133747  0.3632580845893473
  0.6046745948559944  0.9910614419144264  0.6078945691481322
  0.6017405988419444  0.9813555237281918  0.1077867651064489
  0.1038391112422477  0.7411428057159275  0.6095996403972163
  0.1054274916226024  0.8600244954313466  0.2385354246722008
  0.9826801949728514  0.8657008980791443  0.3586147667521801
  0.4807388764036933  0.4904084547601544  0.5006720396121401
  0.6107539738886966  0.4936948621646713  0.8535800353462075
  0.2279840611474770  0.7370950443911020  0.2356609084642048
  0.1071904427517386  0.6202182728643318  0.9813233412060283
  0.8635001856124076  0.9867076941216333  0.1096825418691932
  0.2286234285341010  0.8604290722113880  0.8546937513469816
  0.1046865629466580  0.9874768879225946  0.3559228094486562
  0.8610564741603567  0.7424565992746763  0.8577262557809539
  0.4823091370881978  0.6135914520332711  0.8473591514146496
  0.8560232133243417  0.1143909701907034  0.9831856670192461
  0.1038677475538778  0.9899916916048592  0.1101583200616137
  0.4750296545054789  0.1118496293495144  0.3549664296556322
  0.8342178476038355  0.7310635064184499  0.3756649216637256
  0.4809064234580334  0.3644110012873282  0.8599535888288811
  0.4993957386664832  0.2379315309431211  0.0026394170711955
  0.9831693587173882  0.6174952996188058  0.1072069406841150
  0.1059705460028707  0.8549459456702376  0.9807615566219585
  0.1077276196023939  0.3650062584562766  0.9790418360141726
  0.9797545186622634  0.4875697441962791  0.2330099622414161
  0.0997824616026899  0.2402989912955582  0.6143240887554541
  0.8437959545018254  0.7436358479652322  0.5894497528861089
  0.4785187022556859  0.3626928061448028  0.6174886496556447
  0.7349128304461320  0.6194935699796019  0.8524484890548809
  0.8553858320974460  0.3634921342876085  0.9808663797208576
  0.6288090926502817  0.7440365319012393  0.3817504888258810
  0.3471028594597616  0.4917360586800775  0.8600269738296175
  0.4811890247722140  0.1118583301694606  0.6095137648954434
  0.4827634754048732  0.1071186867859280  0.8629072342080389
  0.4982274338310002  0.2359490234647233  0.2068097616335964
  0.7092491197318208  0.3873597346046986  0.3619918929753448
  0.7344051552216617  0.8696491921629635  0.1111760703973710
  0.6100919135124945  0.1128937111146953  0.4817378871519177
  0.8570895415517864  0.1205052309351704  0.4801230358288622
  0.2296318951473272  0.7401819282056451  0.4861321734486099
  0.2326537770634009  0.2397944787438188  0.2324529600824133
  0.4910389794961669  0.6074545559897994  0.3607438383566729
  0.2342713086427882  0.2398957185809152  0.4784323966511034
  0.4906680770075433  0.3801718032320317  0.3603296509427988
  0.9787122691480508  0.2428018652714845  0.2327269724952611
  0.4798366123795735  0.7463976141544592  0.9835754374145368
  0.2312764440210701  0.4913595847772685  0.4875678139659771
  0.8595455222320910  0.3656855694799381  0.4860597669428463
  0.1063599595582575  0.4910080297094698  0.3594033319187828
  0.9844185434182186  0.9901334005971018  0.4805634430088996
  0.6072817376519353  0.6198203361109946  0.2224660723097140
  0.3530128024197988  0.4930026587127430  0.3560807666747192
  0.2287628589856476  0.8629316665363390  0.3589128085076553
  0.3588554965550858  0.6149330818107391  0.4897867751755868
  0.1006126688520612  0.7390372232726556  0.8524927290626281
  0.1059113793448196  0.3677647275828828  0.7378036057921904
  0.4804579017032288  0.7471673454033955  0.7324774137883117
  0.8616736090500865  0.8641266153686328  0.9826605217812029
  0.7373802699653396  0.9825849935101081  0.9784986486064899
  0.3494503205232514  0.6197810945039601  0.9836237483436387
  0.3510073523000043  0.7381014410872691  0.1124222615145888
  0.2270628678657678  0.9897920766208074  0.9801376639257214
  0.4819032826236452  0.2352429640268903  0.7380884333816649
  0.4847313544318156  0.7385558603678263  0.2342877068964458
  0.3562076042656321  0.2395219243141400  0.8631933645535256
  0.8610692355098655  0.8761309022482124  0.4791297965656509
  0.2314908682170388  0.3694451101187576  0.3560659762544974
  0.4795551829403625  0.8688083322234285  0.6081207070917578
  0.3561814206387439  0.7351744104473685  0.3608863779375411
  0.9802447989785587  0.8659652328974534  0.8535402181380017
  0.2261176577510049  0.4913986513556159  0.7335282024325611
  0.3463676349190867  0.8610785418551559  0.9808844459094862
  0.4725835051816318  0.9869766789676844  0.4823233723618283
  0.1060361309780639  0.4944442150357350  0.8579802455138597
  0.3529180963302815  0.6162623532524684  0.2325970859460845
  0.4768925730639209  0.9823970066406609  0.2335730653295673
  0.2260539112766315  0.2399135544965904  0.7354820606912302
  0.3521898780165574  0.9874646858330537  0.6079620080789467
  0.2280090591464141  0.1143202772858839  0.1052339035398671
  0.3538972676457682  0.4917138395334720  0.6164485472659234
  0.3547030099755271  0.1107306202198261  0.2287058663425961
  0.1036476300125072  0.3658794214753421  0.4846433221613969
  0.3499592825233614  0.3638707124864681  0.9841494378264340
  0.2289478169375057  0.3644621499643572  0.6131985550856359
  0.1040195242909862  0.7395584338887766  0.3597957785839803
  0.3503181135063707  0.7412481265332155  0.8526156043633152
  0.8585292187230086  0.4887548038315375  0.6168810451334019
  0.3531660063267423  0.2396027637592594  0.6082350755601348
  0.6102160067281162  0.2369289740387995  0.8585644451335062
  0.3574288628971860  0.3703441722557713  0.2300135457683371
  0.9834799814711701  0.1155718214630650  0.3579097506255622
  0.9810209081035252  0.3655659418000551  0.1046203913711222
  0.6087669148736836  0.6223589460061127  0.7286165507077043
  0.1033987348668997  0.2367702086772767  0.8555194885926737
  0.3584263003663370  0.3680182372409564  0.4848892568927534
  0.6084189512700061  0.6180719043037696  0.9803535664546481
  0.1072972900587952  0.4910769994541823  0.1040626405823908
  0.9810851780731367  0.3633469827210790  0.8572319716618007
  0.3478827237953941  0.6193138165670199  0.7311294174283226
  0.4763175041871024  0.8632728323902484  0.1130936930011232
  0.2304236752674019  0.1154825275407891  0.8613651264201678
  0.1054750112130513  0.2428198218477157  0.3587051722341655
  0.2283182987842468  0.9854703375592954  0.7330956028820915
  0.7336807725404387  0.3653161695808209  0.6136496806178934
  0.1058584662352399  0.2412514625634334  0.1058271531167855
  0.7340584196741679  0.4954585654729707  0.2210608459253679
  0.2294777468083325  0.6164297417314475  0.3576735931780335
  0.2297575940331769  0.9843184599742117  0.2353900786527908
  0.3538775940000680  0.1103697847651075  0.4844479510986689
  0.4778164429671141  0.4954136874532014  0.2216003074221778
  0.6079420147181221  0.3636904973501733  0.7383422061447626
  0.4804974440809626  0.2416046438289849  0.4846886068380958
  0.8592600227087971  0.2392152450117757  0.6123924055911930
  0.9773557006668161  0.7387188252047189  0.2399615305709059
  0.2255781066460381  0.4948005914545811  0.9826934510106565
  0.3530016759491609  0.2398895714437897  0.1033209137727771
  0.3639453833985299  0.2452495975568590  0.3542767854023863
  0.4786361351366448  0.9779046763365140  0.9835367819835871
  0.6073751071961919  0.2401646476791993  0.3566792130067533
  0.6099320394965625  0.8659355676247280  0.9801193882170939
  0.6096920955429210  0.4870536045354372  0.6223974726448878
  0.3518270488425390  0.8663759854344153  0.7307581383302498
  0.7344419518291383  0.4947550762268568  0.9781505731865821
  0.6099783894571708  0.8653020039332638  0.7322988535427865
  0.2251932652912957  0.1103361418515882  0.6063698052908646
  0.3550878362198045  0.1115207210847426  0.9838509350143901
  0.8583585751992210  0.8618275189492228  0.2381792703434975
  0.7328716128977272  0.1157746226819846  0.8634566046496172
  0.1075353766256099  0.1122412847085894  0.7323628612204153
  0.8529936757388468  0.2408070970951037  0.1039628476702296
  0.9828229492155299  0.7419168062897303  0.4833613437658005
  0.7361540671771420  0.9936014576640312  0.4834548132479048
  0.2305147318960448  0.1072694921898325  0.3572616101699581
  0.8561518760349442  0.1134008935046796  0.2303452342358950
  0.9814219124382291  0.8639794734728542  0.6061007101945337
  0.9801694706574736  0.1161662085207142  0.8559373173179826
  0.7290728194727167  0.2436420143581422  0.4847895153771064
  0.6087191401493822  0.7452846050135020  0.8538425952663065
  0.9812347256588241  0.2398330387232001  0.9819821380166734
  0.8565811640493161  0.4924235692758285  0.3577761686033027
  0.6043012189355279  0.1134084232868093  0.7357710000116180
  0.6049768513504834  0.3742300109081019  0.2223959906577296
  0.8579439755585115  0.4912020067534261  0.1027488447835526
  0.9842826073239003  0.2383629266887315  0.4823489793165283
  0.8473145122619343  0.2441428736072192  0.3543624978994709
  0.2279562001325838  0.8584333512593608  0.1128561639610475
  0.6108921179928358  0.9832588817501895  0.8576210107265950
  0.7355583963303507  0.1143968634763914  0.6077915421143388
  0.1062877165196109  0.1127697945281029  0.2359331215269684
  0.8589969128554105  0.6177070068578295  0.9786014524878680
  0.9791257951113592  0.7403068218617421  0.9814088424732115
  0.1020542113760900  0.8659031088461159  0.7307134194648419
  0.1028952333619004  0.7406452611746568  0.1131344781701346
  0.7315965188383174  0.1154483948666474  0.3531677932880792
  0.7345314802053414  0.8789047721444592  0.6071561294911991
  0.8482135873764373  0.3686751042343149  0.2333130073596539
  0.4763170564476671  0.6180319101248205  0.6162737614495943
  0.2278303532808858  0.8654865314381532  0.6102368333202596
  0.9798158302372105  0.9886895272843125  0.9822653209126915
  0.8541081469422156  0.6178167811462147  0.2384386455068219
  0.7345757428250458  0.3727470245083442  0.1038608821630134
  0.7341674713707219  0.3639791795833137  0.8585114962518740
  0.9834113132605767  0.3662229583528747  0.3594157649001605
  0.6079659238604982  0.2384968739597805  0.6131285950178058
  0.1023983425979676  0.6162621096935248  0.7325079679613808
  0.8585970847643928  0.9880495691167657  0.8560327727101584
  0.1043047289989753  0.1169439209119267  0.9835978149816716
  0.7345272514361050  0.6098525113164297  0.6184155026916867
  0.7337271246727434  0.7438512273665507  0.9819146760639499
  0.9813938666899665  0.4928838501551440  0.9794895464829291
  0.1049211627933848  0.1106053688744173  0.4807450127598540
  0.8575191792009660  0.8635076149859349  0.7293711616217868
  0.9814097214405576  0.1153818163047282  0.1073012106718309
  0.8598149802530682  0.9948193676921325  0.3556606177843386
  0.4804219246012564  0.7427590296062172  0.4894556925385695
  0.3534291954228349  0.8643279054581934  0.4845162914649225
  0.8587591746475804  0.7420510987950782  0.1095101472663173
  0.2262366416701569  0.6185140981715054  0.6125268609576583
  0.1024201855852086  0.4891157495320089  0.6128982880447413
  0.9819923408212382  0.3666112638555181  0.6147356997980985
  0.7311717064271962  0.7413644929424981  0.2334286514870388
  0.9860618281086766  0.4909489347099543  0.4852794015869186
  0.7368341328608288  0.7454238491394589  0.7309452086803270
  0.8588204702173263  0.3658050541343638  0.7358464797331890
  0.8585732617794363  0.4896876262225668  0.8577395769490543
  0.8601318697853066  0.1157377081501085  0.7368434202578840
  0.2295696254364579  0.3672500808124107  0.1056929681775958
  0.6079935095778837  0.7425556190508280  0.1076392682554067
  0.1040700031975070  0.6173081705148186  0.4859775360070717
  0.8552818004532508  0.2403061986735739  0.8603303491491417
  0.7201172219001258  0.2382782323733737  0.2181923641817319
  0.7312599802691593  0.9961757227613969  0.7359516068601185
  0.1057772186934522  0.9959841920807770  0.8556779003052296
  0.7372623292231507  0.6212394555286748  0.1029835534362441
  0.3423322666244237  0.1165705531284975  0.7327124323635003
  0.3456747945180307  0.9818242898042724  0.1062857219226647
  0.6178147451590827  0.7486387407958119  0.6015635940591800
  0.7342691199347718  0.2371974540783326  0.7347855930445935
