 B Cr Fe Mo Nb Ni Ti 
 1.0000000000000000
    14.5059237211907668    0.0000000000000000    0.0000000000000000
     0.0000000000000000   14.5059237211907668    0.0000000000000000
     0.0000000000000000    0.0000000000000000   14.5059237211907668
 B   Cr  Fe  Mo  Nb  Ni  Ti 
   6  56  13  26   8 142   8
Direct
  0.7280431234343059  0.6779915376833855  0.4733386630650718
  0.6032660974117925  0.4880556079950529  0.2775073535981065
  0.6021779467028827  0.2953670752221507  0.0864677789996121
  0.7292128339351219  0.8085627893304083  0.4728358774763423
  0.6054774806111415  0.4798992520689079  0.4001722419863420
  0.5999758721731694  0.1747873585277724  0.0923293615688532
  0.3483611359076673  0.7407736208828739  0.1006814956594422
  0.2323642566134139  0.9847480804290339  0.4704831413246356
  0.7357924225911370  0.9963925691958451  0.7176541504840288
  0.2287545242515938  0.4867468540505522  0.9713011992883229
  0.3440882527562934  0.3621482277966133  0.9682738791346291
  0.9772389804173910  0.9871626012292893  0.2244370269930657
  0.6048797207485547  0.0948074089141840  0.2184814470919485
  0.7298711243428814  0.8794153856614806  0.3400740000462030
  0.4693939435047638  0.3738853406096003  0.0853108774769698
  0.9809224547250706  0.6128295605881617  0.0874260449414448
  0.7014584744903343  0.2297328541978760  0.9927056297566377
  0.1018623016161332  0.7404277950147523  0.0948105122373230
  0.2345859168950138  0.1064435536135575  0.3476967935462073
  0.3547508910414054  0.1164280041637884  0.4708356113990811
  0.8565455361975980  0.4839236988983224  0.5993194396887240
  0.4714885851789233  0.4923719989138787  0.2000180251339758
  0.7315056370226208  0.5954866601946052  0.6028274576813372
  0.9781787632302028  0.3637120636308834  0.3509037251291263
  0.9797207638262091  0.7363585462285203  0.9715817769078772
  0.8499960288146380  0.3623481014296618  0.9702671381518534
  0.6013439206940182  0.3534628469942792  0.4838039622846328
  0.9781137351647384  0.4855997487860079  0.4707095016105846
  0.4762363665500112  0.4804101129311206  0.4806589101322268
  0.2275117186674415  0.9866089414239640  0.9730360021178499
  0.6012244995747150  0.5992181461880480  0.4896278080121629
  0.7354218526254285  0.3684987942557239  0.0808623411749998
  0.9801613882207203  0.6109267426158616  0.8454981891146045
  0.2267417189450645  0.9873944453387353  0.2244497285192498
  0.1066718485881247  0.1073333072537770  0.4581622179225451
  0.3443972391240396  0.4949891306923370  0.0906361652641625
  0.9791932804152595  0.6110938775617977  0.5920951332957440
  0.9699234735371164  0.3702050118605466  0.5972332629676573
  0.7293218141961165  0.0983208677363687  0.0936985852856809
  0.7322725787673064  0.4796910240687084  0.7243757516537173
  0.1023251748641611  0.9846298551888351  0.3474924817001517
  0.4784921852605538  0.9849158525906709  0.2193434967062566
  0.5980625544175396  0.8831999958451811  0.4761707612388543
  0.4848104788843642  0.7371343150522550  0.2198324060988441
  0.9780112210398879  0.4909210561021073  0.7174987061169901
  0.1042384933908856  0.8637557236983079  0.4725968137310908
  0.3524855013519487  0.6146700016341439  0.2174956494206003
  0.3523078649539289  0.8623758139779117  0.4712611008215163
  0.7318763568532168  0.9783721408677578  0.4709613809637996
  0.7283368519687405  0.3651710970940081  0.5964859972330323
  0.6146570311966926  0.0989145626257438  0.9644636901210244
  0.9760502091799350  0.1078051225450044  0.3484186481680139
  0.8613653075332015  0.8766752801639022  0.4711050999756977
  0.7301102554901306  0.8815433045141854  0.6070144473199351
  0.8559709618308181  0.9916149148681277  0.3402293037620189
  0.1096093992835619  0.9878100263659207  0.5823501218143617
  0.4783161202072755  0.9880108708233254  0.7188622901733400
  0.2298214470468936  0.1028153686451281  0.0898632903803853
  0.1064751814035595  0.6146229433030587  0.2199764503352139
  0.3527747562312820  0.9877324905538327  0.3441543117672021
  0.2294737694690579  0.6144392493387016  0.5917573866461798
  0.4790287164898108  0.2347448706477784  0.4710246174313286
  0.6001686141789708  0.9893938977204759  0.6021805984339730
  0.8537588061677590  0.9903620327254533  0.5940247107675202
  0.1053568914034298  0.2367752274728197  0.0879221592106786
  0.6018150516278896  0.6194299186072012  0.2071282155332394
  0.7285488906120332  0.4790251153328085  0.4820003199432600
  0.4764797614817732  0.0966523429242006  0.0955037846898894
  0.7273148750284542  0.7400060644516196  0.2208534461995254
  0.8616917264987308  0.6138641400503601  0.9633959625178378
  0.9775757573791046  0.7358916342236943  0.7144269578767257
  0.1044110226604264  0.4890774119195005  0.0902292806540589
  0.8529310471348684  0.5978278198093182  0.4717173693631140
  0.2257952180199447  0.8649010576492706  0.0971963473732933
  0.3560383931354491  0.4878821062556446  0.3406835590585785
  0.2284279047604598  0.4865112787776536  0.2210756561494520
  0.8341487593161592  0.7393649479019605  0.5776126288842961
  0.9767075007093972  0.4926330680976201  0.2154829305343555
  0.7118021238503501  0.3761200233407777  0.3408953862162660
  0.0990379204464344  0.1050815107160261  0.9725240736398825
  0.2254131858700009  0.4890605131077683  0.7157927726025040
  0.4930513887692239  0.3823813042927335  0.3419341722987551
  0.8302426522021317  0.7375016504303692  0.3648199700096798
  0.1078421122819392  0.2364657439417427  0.8415167089935736
  0.7316502157421986  0.8597262177371655  0.0944169504218300
  0.2247890762796632  0.9866375753344785  0.7146796732360491
  0.9794187724516498  0.3614040433365294  0.8446642075846041
  0.4789302333598380  0.7396700472915432  0.7159482381466820
  0.7099638003159390  0.5867028985103744  0.3432121164548639
  0.7311402491865213  0.6143514854942156  0.8404538200300758
  0.2220629237704178  0.7428209870144884  0.9715001777929627
  0.7291865334808078  0.2373898489628850  0.4708537519554878
  0.5984464963972004  0.1072819005156280  0.4715444372163818
  0.3587504097754237  0.7341511786566588  0.3425059527671648
  0.4739897695830635  0.4918445899834177  0.9686707456187726
  0.6252470566944653  0.7435295270197912  0.5773185245349558
  0.5000275841852453  0.5922199960634386  0.3461717490869811
  0.9737151212309808  0.7339125829631353  0.2177704162702760
  0.7104466957885326  0.2331767904176095  0.1970245320073377
  0.6225526121629605  0.7453506519841844  0.3662815053080447
  0.1041119618169843  0.7369989780769656  0.3483081970475462
  0.2255389102329891  0.2357381299231231  0.2185534902121295
  0.4772440213824395  0.4844030160126688  0.7231901408248134
  0.1044560134131156  0.2357925056208116  0.5940203192896562
  0.4901309327817335  0.2345662703450614  0.2013983516716014
  0.9773869990964164  0.2384994526691782  0.2134927392341606
  0.4779117352686987  0.7427109130028517  0.9659761735804646
  0.2297240422553645  0.4860323077797903  0.4696425572432876
  0.4920481862869873  0.2301811615335836  0.9793524787221947
  0.8478020695481931  0.3645675663491619  0.2151298920370489
  0.8575197299285295  0.9838801560055995  0.0946916293652751
  0.2249045788035807  0.6168004451469712  0.0933080626392557
  0.2307778833710099  0.3590174968307834  0.3457591884563403
  0.2301972467764605  0.7372256318917162  0.4710412972836984
  0.4750004368485655  0.6140200159056745  0.5964684319788950
  0.4772757080833910  0.8652724926355851  0.5949729126561603
  0.6029189732811169  0.3760353839242064  0.1980394200107850
  0.5996589373669043  0.9869266757009874  0.3426575674314244
  0.6028546737688248  0.8630856639675900  0.7189913119416215
  0.1037151921483905  0.9844277138021743  0.8431480865390775
  0.3505327850487887  0.7405946130917291  0.8418048383321896
  0.9736163879864229  0.6100682435322320  0.3490235037713283
  0.6045370692241496  0.3715428897655343  0.9648570651192806
  0.3527381446482477  0.1087466220008633  0.7210788185628938
  0.4775847559415473  0.1070087157821052  0.8444036299519201
  0.8498785751528476  0.1114594831819902  0.2156286014267009
  0.8537550197434906  0.3602950819133336  0.7232020722531802
  0.2299693687225016  0.6147541334319211  0.3458983311514059
  0.7324623988948836  0.7396307236427322  0.9653184088628901
  0.8521897800304151  0.2375674626315152  0.8498214058696594
  0.0989749477792575  0.7377838540572831  0.8436907181228609
  0.4762970460291591  0.1101195433943558  0.3413486498872925
  0.8574780990915055  0.1138241216695303  0.7191994113986494
  0.4748508560116526  0.1098302118164355  0.5978929071424525
  0.4804782280165513  0.7387919580484609  0.4712298869108643
  0.2331677577922586  0.3595387858758041  0.5959904980245027
  0.2270264877286265  0.6133126540418736  0.8435766557355743
  0.9764210289710428  0.7363522778769737  0.4690657803889808
  0.3528446824657152  0.8632788009602697  0.2208390524089933
  0.1017420618632061  0.8657154964943315  0.9689084598165727
  0.3630569789447101  0.2392100441014454  0.3413948793955732
  0.3538516288762249  0.9864121580721200  0.5952111870437352
  0.9764697297082572  0.2366106534316923  0.7192961533434737
  0.3489697428516271  0.8644588712160044  0.9678230294032431
  0.7314024636980422  0.9843956837867511  0.2161991548605731
  0.2264927671755576  0.7402483687471424  0.2190583568256639
  0.9763048907347543  0.9833934597981229  0.9667678726537842
  0.1011415301188054  0.9835108269375741  0.0995412062376648
  0.3475316342759557  0.4897212422702707  0.8457674257776214
  0.6062367607420515  0.2342700502810702  0.8445702995028139
  0.1000957636298173  0.4883373612290164  0.3450713484075279
  0.3502815755790999  0.3598671964220231  0.7235502367607853
  0.1064031668724427  0.3641718550224605  0.9698657470947245
  0.1014940172909021  0.6124925575229241  0.7186718364883651
  0.3521664373396972  0.1073833156188553  0.9692054461585352
  0.8530998689740904  0.4833482084942256  0.3436370813142701
  0.6049094174737311  0.9784878611732872  0.0920601875723501
  0.6010948432454070  0.2310644451617746  0.3436231795630003
  0.1028002120666072  0.8624534712162168  0.2218657408634042
  0.9802788735979818  0.3653220044133537  0.0893315346104291
  0.6052082969691911  0.3580912866471497  0.7255424526548448
  0.2317402821770791  0.2339371423167247  0.7207145082483727
  0.6050097218921733  0.6166328369361270  0.9630644291808981
  0.1038414919844940  0.6118217628254717  0.9675778081889307
  0.3508989010246531  0.6146102084112263  0.7205872261388063
  0.6053396637767173  0.4874100145498426  0.8443851424184584
  0.1037792962566595  0.4894481005028046  0.8443252548270812
  0.3503570778635122  0.9832939069674567  0.0962622557312532
  0.4751622616603393  0.3600496008418813  0.8491579471708046
  0.3513705867946075  0.9857434908134418  0.8429159858386865
  0.4757815109848442  0.6197521633599058  0.0912246538733714
  0.9805754408262118  0.8624586477192269  0.0953457955823402
  0.7332871293139237  0.9820652702573118  0.9685994803260543
  0.1010831608064159  0.6119519341139336  0.4709004516220582
  0.4749233963616555  0.8621025037948680  0.0982461742303818
  0.3562539694530599  0.3642932764877438  0.2162646734419870
  0.6028009668385835  0.4791659127898447  0.6050720616188208
  0.8596201885562956  0.7372483483394409  0.8418695079677996
  0.4796247314318798  0.8632885321830180  0.3463358674017492
  0.2297438081583673  0.8630186880402110  0.3439278847572588
  0.9799461602054585  0.8614865866962963  0.5924155470756312
  0.3526648558337463  0.2339882330435266  0.8497863948291441
  0.8572132476538451  0.4901882358074467  0.0871906776759916
  0.1045908925255535  0.1100941698886001  0.7184291866842721
  0.3545349027630437  0.1077102551541951  0.2153647127001330
  0.8507297574980163  0.2368419934375227  0.0885196051929786
  0.6021841801526342  0.1085566863920641  0.7223244674922263
  0.4741482452413472  0.6157109462408148  0.8410173242466503
  0.4695621801654192  0.9884901480880918  0.4690157729370045
  0.1007920676538997  0.3607717987726179  0.4685812193155188
  0.6023197135537437  0.8615882737333029  0.2198916491085512
  0.2304302423616882  0.8602512460439553  0.5927820995259824
  0.6056844023755505  0.8623466051582730  0.9655614915989037
  0.8531506809574803  0.1104463095897760  0.4695547664969377
  0.6040759282376295  0.7422139224928422  0.0913433015899562
  0.3532453063642971  0.8638066612282297  0.7188561237996806
  0.6013373007957848  0.2326375555511028  0.6012987376310924
  0.8581668329495411  0.8597637188237967  0.9684548399597771
  0.8556886183183521  0.7380200206527533  0.0911327140660521
  0.8551037367279841  0.4874434215555166  0.8437374687792524
  0.2262163465505737  0.8647058271202092  0.8432938074441932
  0.6053375269660042  0.9851773855242756  0.8395686109501332
  0.7336189075588511  0.4924219357463271  0.9644047847807451
  0.2302542058010395  0.1073096630905529  0.8454561183523183
  0.8524688155775034  0.3626429258245204  0.4672535313230530
  0.8450822529415835  0.2390346834414149  0.3378540241351656
  0.4765167700519956  0.8651599511715456  0.8382661393078030
  0.7304510369681356  0.1090646543757048  0.8458730117420405
  0.7297239659612967  0.1100607768810299  0.5960378832092423
  0.1032858806856477  0.1073437177404203  0.2197253072468413
  0.3466759073591764  0.6165076684765536  0.9667968923387419
  0.9766762500671401  0.8640741467354811  0.3466975766027292
  0.1037477959018481  0.3650358524129125  0.7171827703644152
  0.9811300084285961  0.9878584792524151  0.4712046398194990
  0.9787782279592872  0.1073079570876827  0.0962884662456130
  0.2323094323590253  0.2338233579292673  0.4642212923440608
  0.1012273837574080  0.3659023134618201  0.2196405219738433
  0.8569601902036885  0.8586186160120660  0.7169492099229402
  0.2332520631038157  0.1119363811514401  0.5923020264839925
  0.3537176925733356  0.4847211757892259  0.5972212836081219
  0.2277965750163083  0.3625446963784880  0.8437463871436884
  0.3581994281960024  0.3578818764775403  0.4688685186319759
  0.7315800582493289  0.4888997166782248  0.2012842851606592
  0.9788837807737507  0.1097609759191045  0.5911236778046952
  0.7306140130526658  0.7370409093894249  0.7193883451443867
  0.8569287785954122  0.6144034278595439  0.7189822669828906
  0.3595305921035169  0.6116167415401351  0.4705710561998602
  0.8556428255568604  0.2389023192785845  0.5947679452431089
  0.8542592522974399  0.8618503664745871  0.2210598377499195
  0.2264445218880906  0.3622373253028662  0.0924000639095638
  0.1017796117958953  0.7359779003344390  0.5926677847911646
  0.9796198638699735  0.1144589841652131  0.8411740176260735
  0.3539315724865437  0.2362219167616643  0.5944617494124724
  0.2272332812333227  0.2350165131503364  0.9704534558474579
  0.4754794738616268  0.3559792311128939  0.5984740151149571
  0.9793358813436137  0.4882412942387790  0.9666280915304373
  0.0984721716373478  0.4857164945811532  0.5946667805466355
  0.3545826595012361  0.7374891019217202  0.5939632380881454
  0.6042259454460774  0.6143146374595175  0.7179109354310627
  0.9802548480125454  0.8601372353820554  0.8429044162903111
  0.8546057607484383  0.9846437604628084  0.8425375326882343
  0.9731212279518531  0.2370126975430454  0.4652623306612548
  0.1011996471659835  0.8609812315014023  0.7169941856276797
  0.7281662147481797  0.1086423466290490  0.3417414463046389
  0.6032247585325077  0.7382549510425281  0.8399899858103086
  0.8482814847721349  0.6121753712424034  0.2213952037084830
  0.3499384934903342  0.2339242851255725  0.0900724516803647
  0.1014976524213791  0.2370414782140530  0.3477699541021658
  0.6039297629096866  0.4971478475307762  0.0829573303199261
  0.7289098329668285  0.3584189422366887  0.8494799845037272
  0.9793329949935824  0.2394198390054409  0.9728704042136403
  0.9780585723236224  0.9857185407207463  0.7208904267244511
  0.7332998604781750  0.6182431462697698  0.0861570382987135
  0.4751902603432268  0.2339705576970875  0.7242620934495679
  0.4761297483118753  0.9824825268973557  0.9683711000788993
  0.2253060906646239  0.7400326395282271  0.7194446905267439
  0.8602551773549584  0.1102634825414917  0.9655104698278765
  0.7315354887920970  0.8606711370067521  0.8415785638631161
  0.7317344408849480  0.2318896075366469  0.7237973264807268
