 B Cr Fe Mo Nb Ni Ti 
 1.0000000000000000
    14.5059237211907668    0.0000000000000000    0.0000000000000000
     0.0000000000000000   14.5059237211907668    0.0000000000000000
     0.0000000000000000    0.0000000000000000   14.5059237211907668
 B   Cr  Fe  Mo  Nb  Ni  Ti 
   6  56  13  26   8 142   8
Direct
  0.7269615141775675  0.6666121023704366  0.4773077612524534
  0.6044877896755154  0.4801420120067953  0.4028035278055864
  0.6016536820609508  0.2899813591010393  0.0941228479249107
  0.7280656897198338  0.8042740581525379  0.4754455316093016
  0.6032426771994264  0.4896168908072416  0.2810093897575245
  0.5999821351766143  0.1637960604490157  0.0958547754251770
  0.7310391948391775  0.9871316834260977  0.9696492257221793
  0.2279830364811838  0.7384724444594828  0.9771653749046564
  0.9807763875105836  0.6066850448492681  0.5961131950997749
  0.8611195931997198  0.8756072679877120  0.4738490543402534
  0.7300302785784100  0.4962187234202717  0.4869537717933279
  0.5987231448815947  0.8794997155831817  0.4792887541018869
  0.3569544745299668  0.7368034128922812  0.5906642398094818
  0.1024383637899296  0.8679472078653659  0.4771941488643270
  0.2251503491486907  0.4821285902901488  0.9762570710447129
  0.7060368930882041  0.5829714385074390  0.3519888436535596
  0.2274006385887951  0.6151875136031789  0.1015101081697520
  0.7303286743060828  0.1092038960381367  0.3474484767017649
  0.6004558223557801  0.9916666203572825  0.1002047165397847
  0.3543236638058228  0.9887439147172387  0.3503470311072038
  0.4817484586285848  0.2400253059219899  0.4759325117162513
  0.4777008783360960  0.9888421868607195  0.7282933306461852
  0.1035158375802730  0.3631664871639634  0.9744009048334148
  0.3483057324158182  0.3572845301337695  0.9744377165837345
  0.6028927663171638  0.8587681172593161  0.7235897111389634
  0.2268536566576488  0.7440659047066784  0.2238333838267690
  0.6019512204243460  0.0945007740045603  0.2291744780304272
  0.3533623430451096  0.8611729884068602  0.2220853590429519
  0.6018277451249939  0.3551427878112589  0.4904850055108318
  0.9787170885648876  0.1132839625737572  0.5951641798601862
  0.7294274561321292  0.8772819132227689  0.3447742480468090
  0.9794599588688244  0.9919338105630203  0.4755662220012815
  0.1013612375785202  0.2371846109894128  0.6014923076869930
  0.8556638801468998  0.4803174707673338  0.6099033795369289
  0.8592736812007772  0.4875902227976389  0.8450138331849606
  0.2226888400996292  0.1075203452410721  0.6030374274567194
  0.6050280162699289  0.3721151128113732  0.9659503950620379
  0.1096261102629275  0.6112413735938966  0.2249793958135905
  0.2260257312502511  0.9881699265674275  0.7251992417577237
  0.4721031315688652  0.9827648704230504  0.2265502553485348
  0.9753858394645807  0.7382687023993970  0.9740432318234775
  0.4685178778269865  0.3660590629802192  0.0872285469469121
  0.7346934985919574  0.0870716787809089  0.0955774398221147
  0.4772196339516873  0.7394560325306926  0.4817100193562189
  0.3533739513116111  0.0955136009675547  0.2252335264742892
  0.2286721524162280  0.8614169022622123  0.1003126020311496
  0.7309609185575686  0.3716007721711411  0.0964660319130118
  0.9806972830780096  0.9863437287493388  0.2251371857415629
  0.8596761724820128  0.5947288713584704  0.4766213974061433
  0.5956346349833697  0.5960177228726142  0.4939572069325088
  0.2314540928937081  0.9831721597620152  0.2240406348795579
  0.9762893830059970  0.4873288692592860  0.9727700086189582
  0.3443851008521300  0.9866246931467531  0.8406355890159518
  0.7335310067697619  0.5975422133412743  0.6144322034712962
  0.7300030698424473  0.9776573647553999  0.4745685715361859
  0.1033320572853404  0.1077675788693940  0.9736032494612070
  0.2256957434770639  0.4890772373165881  0.2208521328363879
  0.9778204619286671  0.3670376494696187  0.6014149409517879
  0.9786711848153916  0.4825899101022946  0.4769384671407708
  0.5033250584157299  0.2375013111068126  0.9951148671934690
  0.4789624210715189  0.4795467709364273  0.4892910927522693
  0.7294912026585830  0.9916843354966940  0.2270601166231593
  0.5998375254760769  0.0972987163259331  0.9677166162827284
  0.8560570899088412  0.6108532566931477  0.7241411529522441
  0.7285765059083632  0.8759520582329253  0.6029178245396203
  0.4767207528234669  0.3563791703725409  0.5991739209265247
  0.2263060287205829  0.3649918584323428  0.0943036181520866
  0.6034755787238452  0.4892896653909042  0.0911828779509877
  0.0992400021772817  0.6068957154476574  0.7231535879039220
  0.7306719069865115  0.7417767249764924  0.7251959138030918
  0.9787987771834649  0.4883668572605583  0.7253170300307161
  0.3497108444111685  0.1135552789531942  0.9726251953271019
  0.6070267022639889  0.4889502587498931  0.8493800872807545
  0.0995093419132089  0.6109867578775524  0.4774816827230370
  0.8586699272073864  0.1073164300418937  0.9745985161940550
  0.6238162668259030  0.7380773895071936  0.5819843920563430
  0.4804260227700379  0.4921254548067295  0.9734052946684267
  0.1046267192569306  0.7365364703687199  0.3538253831674004
  0.9752614743032728  0.7355564743723161  0.2270120325708417
  0.6216516389147031  0.7395166259314813  0.3704708508872918
  0.6036939294854914  0.1134405789936137  0.4746481029983380
  0.2250191544568073  0.2328930159319168  0.7252252247970167
  0.9760275120619748  0.2343935430450784  0.4775930060555921
  0.3555389968864880  0.7378467788646952  0.3563257330506215
  0.8582595078690639  0.3628664738096637  0.9732949029736406
  0.8319187746894523  0.7373999511715629  0.5808262814031934
  0.4979906182500125  0.5930078047483902  0.3535047290881960
  0.7313195821842330  0.6159045040703961  0.8455920508748559
  0.9791014615064655  0.2345669977529583  0.7213716827349682
  0.4800841731154865  0.7407208503291098  0.7187666094730423
  0.9763568155683899  0.4898284540452660  0.2244714134957620
  0.2250735935458415  0.4904898855246498  0.7260252737087447
  0.3520038361834850  0.9901299565877756  0.6018790903448912
  0.3543643586983053  0.6143293705893498  0.2222945210201301
  0.7101501145997996  0.2259145377810623  0.1964288974719393
  0.9760128697297918  0.7339845931999821  0.7180843157222329
  0.8289110877186090  0.7328438471130323  0.3711993493902252
  0.4921160344964959  0.3810689710376552  0.3509523841132858
  0.1026947061343554  0.6160769135814939  0.9760648016036761
  0.7289812333607595  0.8677786195109908  0.1016849335839728
  0.1035519630911375  0.8596817360704176  0.9736703351861843
  0.9785360479058606  0.2361089027247352  0.2237387965355259
  0.7165112321285553  0.3711605682631953  0.3467683607376879
  0.2281532690901206  0.4868057922378679  0.4743854562504233
  0.4776466160336540  0.7400412087354319  0.9729289597131747
  0.4778757572664100  0.4812577849878686  0.7306067413806061
  0.2317444998067955  0.2339602442414726  0.2224200883875579
  0.7114013094053144  0.2298400182478191  0.9872328384157343
  0.2318111855405892  0.2363170424015708  0.4716341916558572
  0.2268185008010169  0.8610206953157384  0.8470291213468044
  0.6029535167876696  0.9838432872524553  0.8458346063057626
  0.8571574218156435  0.4901758209519668  0.0982028441349413
  0.3523832049644229  0.2350015430233199  0.8554615203430626
  0.7301960782689914  0.3596138655556981  0.6034585185449367
  0.8460360463833518  0.2363251070604063  0.3460891265306802
  0.4758727109871655  0.6154334233504344  0.8456136609375847
  0.8577203741414481  0.2317807221378248  0.0964040490262287
  0.7296288996401733  0.1110632953279351  0.5991627879215027
  0.1045376030228994  0.1068798591718444  0.2261054597143241
  0.4773697176913876  0.4872644920454565  0.2085088771074118
  0.9775344361845335  0.8647431687260404  0.3516045046582469
  0.8509485908528348  0.3637418820920070  0.4749348702087426
  0.1026756726917818  0.9860554016838351  0.3497601711186527
  0.1017100768659035  0.4871400466692553  0.8506536248542614
  0.9825071162935366  0.1086038859834367  0.0980233424835711
  0.8558037295226286  0.7402458518086464  0.0992793738587320
  0.4708284331039309  0.1024585979653929  0.0970239600627348
  0.6014303671926494  0.1104583776895544  0.7277966866194839
  0.8498936906773866  0.1100472620793785  0.4726911606706861
  0.6059195889305518  0.8638963455601870  0.9694635735798068
  0.3468155054083001  0.4881149573509609  0.0955686695579092
  0.6046217293945881  0.7429603270213426  0.0985100605159484
  0.2261586264144271  0.1115080007026955  0.8509659796251527
  0.9785400196474942  0.8625142894828489  0.5968522703313894
  0.7284500818134660  0.1095940519092473  0.8519507671850214
  0.2274856936871092  0.8628746715286723  0.5982276427460722
  0.4735686756351720  0.8629342730389850  0.8435664783052519
  0.6051264742520378  0.4781238344056704  0.6122092492312124
  0.1018963168507052  0.3618788460988915  0.4731446198330996
  0.3515769080458044  0.8612425050443475  0.7224725098693092
  0.6063452311646442  0.2338329648196282  0.6046491484000656
  0.7280025974374161  0.7393587355807472  0.2262956734700790
  0.1024841212622107  0.9876754607020555  0.5995327312092158
  0.3581699228353780  0.6069266650719916  0.4768939977491438
  0.8524235443302861  0.8614197255268162  0.7225600356602996
  0.6053040514501064  0.7402859992477786  0.8469648596812500
  0.9791773332871725  0.8611172685422788  0.8470583700151372
  0.8566427547090045  0.9863701074915894  0.8517424814507720
  0.9775454817611645  0.3633311831937925  0.3501556119326650
  0.1039081186799232  0.8630886633149162  0.7215312107765125
  0.8577322283217143  0.9915971178841305  0.3473476370695683
  0.4783381150929037  0.8668890217987538  0.5986900491902966
  0.7310351505452325  0.7412478183531839  0.9724724396817823
  0.3527254712585411  0.2327685823472660  0.0943340423032263
  0.1024478829136556  0.2371786164486629  0.3500941247555775
  0.7318969395161244  0.4890853893349703  0.9705539142976000
  0.7294946555218836  0.3613936498498540  0.8512369837515589
  0.9814344497877303  0.2344999720753634  0.9751566777825108
  0.3474308159866892  0.4862451637970653  0.8524513036513645
  0.8496364137638651  0.6126327257219242  0.2306795064018417
  0.1017706529034001  0.4841996635964130  0.6006537837723412
  0.7303310868406513  0.4807614418410970  0.7308027651167893
  0.3507094670586160  0.4840584094863167  0.6035080168092958
  0.1046856698931469  0.1083918569819125  0.4728527267404650
  0.2270085196546028  0.6136857724137413  0.5988349640363387
  0.1016393667588883  0.4858341235685464  0.0998398702317548
  0.3578017675092806  0.3609639652821057  0.4755837838377033
  0.7302461095133963  0.4908525226251424  0.2128537587769429
  0.8558180072759006  0.1115064411589241  0.7262803879407109
  0.7306041028055520  0.8631966436016674  0.8475702290537667
  0.1037748024504472  0.3644722056691283  0.7251821167156164
  0.8506674596789471  0.2361708202310453  0.5980778199260633
  0.8549313764346754  0.8634692102009434  0.2287013817408593
  0.1045556992651873  0.2357509710041188  0.0960124339963378
  0.1016943657716401  0.7368832319923013  0.5949467002481884
  0.9800458396730052  0.1108231222390981  0.8513937017589542
  0.2280537562317629  0.3608507862253847  0.6029945412425108
  0.2274275960200062  0.1070090123608291  0.3493718411639993
  0.1038647305119761  0.3645155385068171  0.2255440494640291
  0.6018885979983229  0.8637689637441024  0.2273548213029706
  0.2271161953923785  0.6121024189322389  0.8501064310343562
  0.2286513333854323  0.9881130027040351  0.4746592911857139
  0.1013589533419440  0.7360039462391422  0.8461673086488645
  0.8561058314772346  0.9912883502530955  0.5988886893004207
  0.8554331137291404  0.3604276498011770  0.7294483710213348
  0.3517361867655949  0.7401907636994555  0.0982325573360005
  0.2280139872937669  0.6101286799733365  0.3504673739412728
  0.2288690480353920  0.8662840843333517  0.3522816037543984
  0.9772783780984677  0.6131070551541020  0.1008123300188381
  0.6001292717019240  0.3681785887786324  0.2091397177819012
  0.3516160282872518  0.8655884307172060  0.4765731899763899
  0.9764602553179714  0.7369617584591466  0.4746750543863317
  0.4761192922752763  0.1105412485583041  0.8520289329587337
  0.1008143905251457  0.7384967646774291  0.1051805259779853
  0.4786207315572796  0.8629283006253331  0.3541931901328946
  0.4759842909355919  0.9903550050800244  0.4738959418241285
  0.1025721915594955  0.1079492511631305  0.7268474646099072
  0.9827672405415240  0.3607960947899022  0.8480094488810914
  0.8537062319602287  0.1091508503095723  0.2231900097061927
  0.3525543190377294  0.1132454761387357  0.7276959569780481
  0.8495804328450813  0.3624243294174155  0.2202371736127400
  0.5981373570480598  0.9859149991927155  0.3505409146311573
  0.6049809561151211  0.6174577084033838  0.2134414982346872
  0.3527767386645630  0.4848972689464919  0.3462607703589616
  0.2287583501937984  0.7365013011836634  0.4768168829292346
  0.4731923281254610  0.6099404618821809  0.6034195503175575
  0.4774401527312803  0.1135043074026384  0.6015410337037180
  0.4772051034195807  0.1124119872647723  0.3484562311527744
  0.5996297178207344  0.9917712766290613  0.6053570897545906
  0.8558857550106080  0.7403662356627074  0.8484811568367412
  0.1052041843406036  0.9868798474634671  0.8492841330877684
  0.3491173634024285  0.7365516146117316  0.8472130370312756
  0.9774123234861281  0.6081880553097490  0.3538669752618953
  0.2250704025688775  0.2358800485410432  0.9756875764910791
  0.8544614951726111  0.2319771698887115  0.8552128506033687
  0.3469364686247178  0.8618492236163948  0.9703663362959812
  0.3646673898985875  0.2410351385289231  0.3452003481111758
  0.4848129541460340  0.7395570732882625  0.2298060316727117
  0.9817504258008511  0.9868918900323027  0.9734385815070095
  0.6040412765674394  0.6150185299772953  0.7237920599552139
  0.2254775132084592  0.3617312337121487  0.8511215592590332
  0.3503970180041215  0.9838396042984666  0.0968414678046461
  0.4745971045332457  0.3552516671403991  0.8565042715454462
  0.2291829909133681  0.9878294494308368  0.9732466749409061
  0.8584109494972049  0.6136761481968399  0.9714495297634803
  0.4783222322896711  0.6170870308692428  0.0973506574034961
  0.8570502090078557  0.8629986330871329  0.9734583590617313
  0.1019805631668868  0.4864079377502701  0.3490464483004402
  0.4780875424368777  0.8632712783461398  0.1015483526993851
  0.3555417990927974  0.3646989618401711  0.2202059290051880
  0.3529969716395044  0.2366328811890623  0.6005058542577946
  0.9788446973855605  0.6120931432927675  0.8471288398306959
  0.9809079997759940  0.8625787272870731  0.1017634048997845
  0.6060588111651958  0.6157824421800174  0.9707562612308123
  0.3493486790340457  0.6129959952977576  0.7244339459924948
  0.6054631236827029  0.3579927935374812  0.7303514505850104
  0.8633468567287427  0.9837604318094652  0.1001014278931272
  0.1043313230011450  0.9870703863675475  0.1003804195421881
  0.3472019822434645  0.6124083978055709  0.9733714993182087
  0.5997065759999696  0.2329193291983492  0.8498164093429321
  0.3559628195466397  0.1140421138282474  0.4737908492021450
  0.3491820845057927  0.3586714583689289  0.7267266093146345
  0.1029400997322280  0.2353903561087320  0.8518065852415287
  0.2289381776957764  0.3638384980297028  0.3455574652795654
  0.2276940021254086  0.1072912711486712  0.0972758699426127
  0.8537701420022620  0.4843539602289418  0.3481434751009854
  0.7272536842100776  0.2380044210642473  0.4741420789000843
  0.6027308540795895  0.2341480969676092  0.3467300835526161
  0.1032713031206969  0.8651105054661887  0.2257779262149167
  0.9826517801570114  0.3630392977338719  0.0978878407728575
  0.9803673357866216  0.1097246307000264  0.3494019162474040
  0.9785118815431392  0.9839824255702619  0.7254084358984055
  0.7331033897367798  0.6194030436275412  0.0920827151391475
  0.4783749515722053  0.2362925966607492  0.7260845809603717
  0.4736292249827070  0.9784882451538582  0.9698953305116388
  0.2227323072787831  0.7381850797991091  0.7227767687590341
  0.4889865191243935  0.2336473798151991  0.2097570687313810
  0.7320828489610620  0.9922091102487239  0.7271396080720564
  0.7309726921506272  0.2341511156665299  0.7300047005941772
