 B Cr Fe Mo Nb Ni Ti 
 1.0000000000000000
    14.5059237211907668    0.0000000000000000    0.0000000000000000
     0.0000000000000000   14.5059237211907668    0.0000000000000000
     0.0000000000000000    0.0000000000000000   14.5059237211907668
 B   Cr  Fe  Mo  Nb  Ni  Ti 
   6  56  13  26   8 142   8
Direct
  0.7272992380365274  0.7951302524429567  0.4803798341654398
  0.6051704847524009  0.4901775115902011  0.2888757095675469
  0.6030742486424930  0.2958264020537922  0.1012644968601141
  0.7255579464932839  0.6714503290599375  0.4818397303615095
  0.6044970498282225  0.4813441730897335  0.4101507550781823
  0.6049942327060193  0.1705568854628604  0.1078323620055639
  0.2116539206553736  0.4900528958556695  0.9738401714583785
  0.8577235990904483  0.9812150327349257  0.3531826312858779
  0.1056064410392978  0.6209422281399156  0.9784860180578433
  0.8584286068218221  0.8724959424720798  0.4791157715269836
  0.3602574743596826  0.7368704345136223  0.5927297017322543
  0.4781576596818921  0.9807861113434559  0.2308141775192619
  0.7287816247866514  0.4773649136653463  0.7307210289840985
  0.3516314374944688  0.9849801835868651  0.3523198727498217
  0.9796788974181478  0.4888738636631896  0.7314122313590168
  0.8587508712071391  0.4876836549496479  0.6087611284162388
  0.8571343403257116  0.5933784994055662  0.4816458567099602
  0.6014331173858679  0.8769349908210280  0.4768423250359867
  0.1110917582724994  0.9827390207944338  0.5885911365782639
  0.4723855072785405  0.1006592052739658  0.1150918757251079
  0.9756230878627884  0.7333002177971939  0.9771863933177670
  0.3544651021494059  0.8670989041832667  0.7263659320165239
  0.6271214436283103  0.7367546959899157  0.3801029265537398
  0.6046055748612219  0.9790627562161345  0.3532197292703503
  0.9798423535907804  0.9876316936545378  0.4807807095440588
  0.3509166840709218  0.9862029793097173  0.5981751743797598
  0.3421084684697569  0.2326830000342235  0.8642304990891458
  0.1064395990713997  0.3592224622127849  0.9810663978058346
  0.2310193587916987  0.9871452735917714  0.4802277804202881
  0.4769424696006830  0.3576077348081195  0.5976408715585706
  0.4735772695555043  0.1148304446449116  0.3463113672325453
  0.7290729182697606  0.8706085965931268  0.3514453687653885
  0.0922114778149433  0.4880851565666350  0.6074653598156730
  0.7042284538666962  0.5878385682500469  0.3558070301657140
  0.1003917349464336  0.4881955791903517  0.8496216820658622
  0.2269665188510523  0.8586788463028090  0.1074731823813462
  0.6103007454719899  0.0979434101028379  0.9764900958095389
  0.7353491022791241  0.1094651567724201  0.3543254727427538
  0.9793587989523503  0.6123071286150316  0.8529381459566850
  0.3447657952754578  0.4926863840505299  0.1023421718654892
  0.9739890721193013  0.9789666257373461  0.2274327533911755
  0.6033464955901831  0.0970839526243795  0.2445580367571369
  0.9789810427261582  0.8587284052694502  0.1061705458683022
  0.6045679240907900  0.3635505439374958  0.9673240087427297
  0.1065814000403832  0.4877773380544498  0.1028309771194839
  0.6976491044147849  0.2292787706322307  0.9997961450331294
  0.1063466494363152  0.6064817472002999  0.2281845167199431
  0.2294818505402390  0.9807291880750985  0.2294525409780791
  0.2316687154776142  0.9816889022123031  0.7215217052441130
  0.4781292081241956  0.2386167589617518  0.4783212231961054
  0.9952622255399478  0.4948094619619022  0.9730952457591525
  0.4825488191736119  0.7337896754346045  0.4726673475978158
  0.9784573906491143  0.9830412474689282  0.9781515957454112
  0.9801406397389849  0.6122438315839451  0.3594815522832365
  0.8552727240905567  0.2382749662448980  0.6006971476639580
  0.4796651726028325  0.4803254883151911  0.4935392121716545
  0.2278663960723464  0.2335880105058922  0.9807115434984217
  0.7318659936874824  0.3634365938946554  0.6068968421830494
  0.7285882564058386  0.5932527213270965  0.6150778357203042
  0.2295223393422587  0.4913278631376520  0.2236626541137056
  0.5016112691546586  0.2289139995113010  0.2030653836401934
  0.1041589126695653  0.8554568802820466  0.4803271368141727
  0.4780746831596043  0.8633858999074460  0.1105655838830369
  0.2290693954251608  0.6129390959665247  0.1011785525352063
  0.6045692075143113  0.9855461940645101  0.1071081569914990
  0.9817471055614986  0.4869711550346409  0.4801255737965797
  0.2242068512890243  0.3648121175613259  0.1011810801996200
  0.3525353248421695  0.6104126849237094  0.2295454089028268
  0.6059127578540822  0.4790761380689121  0.6097440420462032
  0.6044936325043290  0.5976755218545926  0.4932701671636948
  0.9784797633957503  0.6127076758694808  0.6026109052145744
  0.1001731547045352  0.2380633032888655  0.3542183645871940
  0.2276392159199586  0.3571352112732086  0.6082216316732031
  0.3580881902135566  0.7310149983310383  0.3585063635024333
  0.7313899713425627  0.0968654071610573  0.1038619775130083
  0.6195489650630815  0.7371600446681686  0.5855939575368356
  0.3494254466199341  0.3645409044796222  0.9792378216144592
  0.1029926465206625  0.9819785883132041  0.3571441151654578
  0.0985464021302058  0.2368568125780774  0.6100224049413597
  0.4951540057429659  0.5933538336543289  0.3585778251689763
  0.6029463382609968  0.1149629255267048  0.4727637102217034
  0.7283115584223917  0.8569371845876390  0.8546808788377473
  0.9744675701254571  0.2368753943764565  0.4744795322858870
  0.2294421849754414  0.7318212799974718  0.2325637596128861
  0.8529190801064169  0.1090467199433947  0.9789398055574281
  0.8330264747592879  0.7330515540333357  0.5848162174690893
  0.4799113543788228  0.7340059649851517  0.2334001285182867
  0.7289726133073997  0.6102504348428522  0.8486787131768201
  0.1057249162268338  0.2324439858522775  0.8533519769805544
  0.4731087642682430  0.7408687711173321  0.7247558066629173
  0.9745356074585617  0.4930295751356668  0.2266129559649960
  0.2255074198606986  0.4861358852400028  0.7248244441224027
  0.4753674505279599  0.9861537974619158  0.7251296269932408
  0.9767064939073593  0.7277582779767793  0.2340573079799458
  0.4900871866889068  0.3795526875854456  0.3522453647612035
  0.9784540760254357  0.7358579402763795  0.7243892159562764
  0.8279418413181007  0.7294792929597772  0.3747509611313395
  0.4986286092343322  0.2265895075774789  0.9987950861332505
  0.0999532468849753  0.8566134250462242  0.9767706818510634
  0.7288283991247958  0.8596229503601575  0.1049435016149497
  0.2253939643963415  0.9853214079296067  0.9816579815699817
  0.7184530358555636  0.2328618795826485  0.2077368143798058
  0.2266497302838504  0.4841353108576353  0.4827569119113960
  0.4777127913101616  0.7375288683820431  0.9797375392742562
  0.9763677126093645  0.2379704981458451  0.2301612119654153
  0.2316715198785046  0.2391451584720036  0.4688812848733060
  0.4781145466134424  0.4831428101646507  0.7309264401631623
  0.2255216575835816  0.2383592208862941  0.2279401767900645
  0.8544268044737349  0.3601280792235698  0.9759675259444778
  0.2287586545244902  0.8632642100656874  0.8496904421145373
  0.6013226433763426  0.1106925257430782  0.7277593053949543
  0.7295546661482939  0.3704671884805765  0.0985057636601148
  0.4748583035488185  0.4910931634804089  0.2181621537863953
  0.8545800234078164  0.1109666666243460  0.4775167876613768
  0.8455018997699558  0.2400931699580068  0.3503132654008145
  0.4785500565454386  0.8628995273585082  0.8513564603174181
  0.7309633357305491  0.9799045592616503  0.9774685914679366
  0.7317290165885300  0.1146948256521895  0.6002889352393547
  0.1020625243520582  0.1066716959604562  0.2300505033284753
  0.7307676291878711  0.6134093572379757  0.0969803871330971
  0.9760866767508923  0.8547011613250510  0.3557404567717035
  0.9763687573294190  0.7345244383016151  0.4794122080997987
  0.1019735409760996  0.8575753191965874  0.2306375723398670
  0.9818962514427586  0.3598435426447044  0.8516679320457040
  0.2294372706395896  0.2340110681158579  0.7302182410163754
  0.8554145252119395  0.3671108411658308  0.4795489156986329
  0.4756034965541189  0.3696073215576080  0.1012336508552496
  0.3505541208919253  0.9861526001792158  0.8525193317117736
  0.3523592553357426  0.1098635368045276  0.9831670225384237
  0.8552978629767457  0.2333246106092924  0.0994484635545734
  0.7285023795144753  0.1094601653831664  0.8564565665478973
  0.4739105650931579  0.6124899670252606  0.8527623544303686
  0.7317715525398232  0.9838780376277944  0.2296715765280660
  0.9803455949351532  0.1066980579360215  0.1032454184186442
  0.6048474885826339  0.8587505413123094  0.2313639794876024
  0.3583327748000845  0.6080050884026266  0.4791612501796824
  0.6048230948249695  0.9842329279692623  0.8509765640219662
  0.7284392998904575  0.8757327616881205  0.6013011376202083
  0.6060469057973413  0.7368150606079693  0.1019095997948329
  0.1032839031082041  0.7357445077641140  0.6005124627355485
  0.9794668402036872  0.1087001197405641  0.6026900947535588
  0.3508378247916291  0.3551271175141835  0.7306463943239855
  0.1019348838129023  0.2333222551631995  0.1005454126568124
  0.9794357304060771  0.1091966785958382  0.8529878508555662
  0.0988581572935185  0.3629168333713643  0.4772957307218479
  0.9765495805937139  0.8602628368587316  0.8504022343499659
  0.7267989227071012  0.3580348297937743  0.8539917854339302
  0.1033724456569955  0.1118545752530379  0.4767632188893868
  0.1048884278182410  0.8644613240128243  0.7240691899557854
  0.8450541759586601  0.6122701139448339  0.2315233528669674
  0.7283542618121751  0.7364293423569593  0.7276985273380098
  0.7288002709761230  0.7359017275538202  0.9767125753271420
  0.7294173268408987  0.4901601032608120  0.9729574853428375
  0.6055819044429041  0.2365870005626420  0.6041778644894586
  0.3469906242968348  0.4882240920591824  0.8540541907440631
  0.4790430071774943  0.8641477200862833  0.5952148784079848
  0.2320744838508581  0.8583769368278130  0.5982024937789291
  0.1021434317876499  0.3681385208384418  0.2303348357900925
  0.7255338778656546  0.7347860373054197  0.2312547120675557
  0.6027575075290492  0.6127580397961274  0.7278773207967207
  0.3526756760791160  0.2348241986677473  0.1048664218145911
  0.9807740897402888  0.2335940055009606  0.9780547447103977
  0.8573078747196522  0.8587603995173991  0.9787817828561368
  0.8566260911803155  0.3606874118944908  0.7316840287347823
  0.2288659793976099  0.1067996591187033  0.3519308003331583
  0.8492717433506757  0.8587348449792831  0.7243646832026855
  0.6024840037779061  0.7378956187898169  0.8494089895708614
  0.9772187398354926  0.3670740803504313  0.3534183509973631
  0.5998992457350599  0.9920760335963856  0.6009986255924707
  0.8527452271163813  0.9827337489150525  0.8540032050509153
  0.1006249525670486  0.3615119559441394  0.7288166932410824
  0.4724692210346787  0.6130666146948123  0.1013223382347797
  0.2321327589209469  0.8582520292555376  0.3566157610127876
  0.3536542798050375  0.2365672660615261  0.6025746492456617
  0.2290491521462410  0.6145679212227462  0.6020841525456019
  0.7309686663681403  0.4887273622367714  0.2194712356926311
  0.1026065913531526  0.6126033339903374  0.7259973362537601
  0.8570116679135010  0.1128137495918523  0.7282909400419466
  0.8539552849618527  0.7344794299611704  0.1025846586156975
  0.9790565808871602  0.8603760734287333  0.6005531003287589
  0.8531541852771429  0.2321092694817161  0.8552343267823946
  0.8540778552858234  0.1057958161821949  0.2273303352390392
  0.2314289884903491  0.7340493242341842  0.4777331595600790
  0.1034596841875333  0.7371411753808226  0.8497279741872620
  0.8565506507372411  0.6108386481303840  0.9750334950146974
  0.6063822052385384  0.3571114341129484  0.4865715920593632
  0.8560615402704086  0.9901635896949524  0.6015364468024286
  0.4750347241638910  0.1126401120315381  0.6000390353157811
  0.9768353327218645  0.3632212467905974  0.6065589194945217
  0.4779616749771917  0.8598317952750971  0.3562589630596520
  0.2270569093569361  0.6139924344435674  0.8523520281672500
  0.8519550428641791  0.8560700688402713  0.2310917692874859
  0.3513962171236997  0.7368961903367625  0.1055023463711904
  0.6042479247830153  0.8622030856554823  0.9791213375491487
  0.2288715147021670  0.6099461286496302  0.3555613425629578
  0.4767432035788943  0.3542981643151634  0.8563702701243135
  0.3476471468669264  0.8609940265540312  0.9791326703932236
  0.1023617445645162  0.4877000562808323  0.3531405950755560
  0.8555422714272415  0.4915694442766420  0.0983750550328340
  0.3499426432510223  0.1099491675694662  0.7279031902318046
  0.8495475414155579  0.3646955844265115  0.2243130447841946
  0.7314788368966002  0.9906613392818604  0.4774384883742466
  0.6074032607623735  0.6161044870834875  0.2191652032682381
  0.3523935829392696  0.4869217855409084  0.3509387507937783
  0.1019981225985733  0.6131407464385701  0.4808069812963083
  0.4781653367666284  0.6127198971258916  0.6028075124142958
  0.4750981575434890  0.1107906476337019  0.8568295465948720
  0.3541968016188617  0.8611761614759520  0.4759776800305484
  0.6049518440525111  0.8621951369727572  0.7244085598090589
  0.8546251995659506  0.7362281840399605  0.8521439956785070
  0.1029179208847096  0.9847621884065587  0.8504358121560601
  0.3493645284675693  0.7385131908901716  0.8519906314537952
  0.7284027231885615  0.4806661744909925  0.4875701091566668
  0.2275203545000796  0.1058330077574932  0.8520191360141971
  0.6030940758075805  0.3679565962200007  0.2217458902834601
  0.3566034677290235  0.3659478000558298  0.2240496127475239
  0.8571452718993379  0.4882824333602461  0.8506875183299483
  0.8560235234826684  0.9806305130135603  0.1039832756863273
  0.6036084692369331  0.4862189122346419  0.8536515524473917
  0.1017071898993522  0.1056498225016357  0.9798084786012510
  0.3533163839443982  0.8594245985247178  0.2318971165549858
  0.3472747527857983  0.6093013989514042  0.9769081462026452
  0.3567862271201772  0.3621088217676369  0.4759089217933491
  0.1010613404323058  0.9847773455312999  0.1104566125845278
  0.3549670220266729  0.1128849374576852  0.4753080579358170
  0.4767748994328335  0.4895529416141293  0.9745022468297271
  0.8549014805830528  0.6122485083625563  0.7280027563772355
  0.2251634393731807  0.3622711331027111  0.8506308864831985
  0.6037210544294430  0.6138031271205270  0.9740079971844471
  0.3500072754192926  0.9813434332155763  0.1081760218363759
  0.3514879195147151  0.6145866263757470  0.7259016165028427
  0.6040969025171747  0.3569618246608294  0.7316689072792021
  0.3528170795750544  0.4856800472723480  0.6053267768299633
  0.2286220297654899  0.7367866421462428  0.9803821879382751
  0.9783268496478814  0.6134753439450713  0.0995364093053705
  0.9769988505080041  0.1077041798753974  0.3533806981967353
  0.7319808632577295  0.2400620637859706  0.4784365564915776
  0.2261397617554108  0.1073961382553221  0.1052573679793649
  0.6030729950663860  0.2310502002809004  0.8539623034440252
  0.9819404821056232  0.3631910543933992  0.1002830658073463
  0.6037610915581689  0.2413771430972774  0.3510323481872304
  0.9754072906467476  0.2345657611917984  0.7295717319103570
  0.8519981657068764  0.4876266220398561  0.3532999828483598
  0.2273605023919014  0.3673198713940085  0.3479751840521746
  0.1040626711976367  0.7346336787874532  0.3574827874514593
  0.1028336396348362  0.7340124419135196  0.1060652769407173
  0.1060138811148959  0.1046199912317369  0.7248231732293914
  0.3516373856655464  0.1091337772879923  0.2289874247839956
  0.4737215152077831  0.9887527058368358  0.4732358568421627
  0.2290640567339873  0.1105914420152446  0.6024935097718832
  0.3661703192773703  0.2432854198549614  0.3454151087106507
  0.4735567392735965  0.9788903327377398  0.9787903680240816
  0.2259163032729770  0.7375312647806813  0.7252266823683328
  0.7217309317786674  0.3736814795270518  0.3538626680396517
  0.7307145652539733  0.9970903545955541  0.7226806509634516
  0.9744664243205617  0.9830536644770299  0.7276720429406409
  0.6030417104846767  0.4930890955754449  0.0985788181732981
  0.4792706657757247  0.2321192893988548  0.7291214117554973
  0.7286401659347294  0.2311305576073988  0.7338951792236237
