 C Cr Fe Mo Nb Ni Ti 
 1.0000000000000000
    14.4762002749200285    0.0000000000000000    0.0000000000000000
     0.0000000000000000   14.4762002749200285    0.0000000000000000
     0.0000000000000000    0.0000000000000000   14.4762002749200285
 C   Cr  Fe  Mo  Nb  Ni  Ti 
   6  56  13  24   8 144   8
Direct
  0.2244723152080743  0.2838051308312705  0.7311615939523082
  0.3531294377745776  0.9990086287365926  0.4882731192570147
  0.3884033625222920  0.1104649084709717  0.7268998583280999
  0.4192885583050571  0.2353612339257286  0.5797270406239479
  0.4632984301369260  0.2343304398703122  0.8497372393387677
  0.2356067200667332  0.1525963444398117  0.8942762959856314
  0.4897578259410929  0.8544894578252390  0.1159124104821183
  0.1043071236064634  0.7369940342238059  0.3576670085857078
  0.3272432712109852  0.2217916909454933  0.8207392563841214
  0.1031566026862534  0.1051304425985950  0.2350710851698784
  0.2231994996234798  0.8634373636635325  0.6076564100741998
  0.4849540353330807  0.9912256610904449  0.4842090166160428
  0.9865343639512123  0.3663777830637637  0.3539861449349506
  0.6051869682801297  0.3663370137325062  0.2354263412248391
  0.4800734072081869  0.6081429093804251  0.6098448215826274
  0.2223316985413198  0.9824957456352431  0.4850146728361295
  0.4831651501965444  0.3596791052231547  0.6115411288674466
  0.3416301259471640  0.1087692463015897  0.9708837754829168
  0.2014563869919035  0.0897007608180845  0.6053464124791863
  0.3499918675127608  0.1352658687566442  0.4929077828967753
  0.6041063606845009  0.9789807105029109  0.1148101507538890
  0.4780633960480615  0.4893239229053610  0.2386368813514446
  0.3574618735970890  0.4930113112966877  0.1172354664493483
  0.8521635335326284  0.8597196785618407  0.7311587304272751
  0.3515127588553211  0.8616496819528604  0.4920213866210925
  0.4776305663709886  0.8635578420164073  0.3646279096324980
  0.6070434501390771  0.2327701799439464  0.3492815750443739
  0.4607713980768064  0.1024294705592100  0.8533365375985349
  0.2045729761999461  0.2284182033835871  0.4868484504824385
  0.8576748445392989  0.3712714016832925  0.4819737755337163
  0.1036943410424898  0.8554674783960065  0.2388821945773963
  0.7290158848680030  0.4855720552827154  0.2355209598933449
  0.2177535117843052  0.3689076673838045  0.6149338412359938
  0.4941918355782579  0.2289554149281128  0.4687219029658944
  0.3542710458051210  0.9853060219393953  0.3561195362991226
  0.7270525368549227  0.7331438449399766  0.4813360716229018
  0.1033070836737816  0.9792854308427357  0.3549497698384490
  0.2389343056817520  0.2501376451714744  0.9871928420069093
  0.0037275460098344  0.2361203767366071  0.4863504485524046
  0.5993112502522473  0.2329755029591592  0.8595300441861429
  0.2308747566178402  0.3656885423273332  0.8531344659650343
  0.6048005010603273  0.1051248934337498  0.2356573288744561
  0.8519735125033112  0.8559594421853970  0.2374692512815952
  0.3076368526663653  0.2029957847659825  0.6501372340748468
  0.3482421913424701  0.0123159713601866  0.6230155812842080
  0.9824309274452760  0.4860783057580084  0.4830179813789148
  0.9795598092310236  0.9819054890365752  0.4780585079475800
  0.2250502138745360  0.6144065918328743  0.6075464760435120
  0.1044030103934676  0.3641007260342061  0.4878122909062987
  0.2192443997190569  0.9805584811321097  0.2431675691095756
  0.1093874136416635  0.3727524585151225  0.7317529123511132
  0.3433505006622586  0.2354690799169863  0.1115196986259107
  0.4814593902717973  0.1126859827437881  0.6103188000285994
  0.4742216421937867  0.4885546121558466  0.7201446837071332
  0.8546170232768604  0.4845588490149610  0.3583650263208470
  0.1381818836435248  0.2277735101216734  0.8281821615292086
  0.9902893035898617  0.3625242552527646  0.6158220975907263
  0.0993932745267008  0.0998579305780117  0.4805854632770112
  0.1191257353018086  0.2300248585084703  0.6332471092262012
  0.0979601376125832  0.2346843499925515  0.3570177817993464
  0.8520725531126807  0.6059500668103777  0.2412001032091115
  0.4702368371463194  0.2329807743272369  0.7164950197268907
  0.9853823779885562  0.2309914759533975  0.7354012433124327
  0.3426650061958404  0.3668343207797352  0.7251297249822422
  0.6023958631347260  0.4861742727686691  0.1184526563830346
  0.6060063278792495  0.7330690887499171  0.3634331948700083
  0.7321723352073438  0.4865523476807393  0.4812714580429843
  0.6014396754130171  0.9851990941232848  0.3561859661806716
  0.8599663071956247  0.4831777040124686  0.6036528881479252
  0.1025976711772182  0.4884269558526125  0.3612269626875897
  0.8573255157060266  0.3626075837974280  0.2366326370358665
  0.2269880398407143  0.7372627013057391  0.2416392978303988
  0.6032389129071133  0.1129039389591351  0.4813135342418719
  0.3514545940059529  0.6144668802948270  0.7274199525806546
  0.1049728030438229  0.6110606121434335  0.7327228638192054
  0.8541596867363304  0.6120128446928856  0.9876230956842992
  0.6003122158945128  0.3644072553093888  0.9869778991753557
  0.9793393198683285  0.7313478834564225  0.4801616531912988
  0.4763818658335843  0.2365447196470942  0.2335453900312458
  0.2240971155756873  0.2317993345681534  0.2357731949749381
  0.9720594396365025  0.9744657342250903  0.7365778689460085
  0.7347898988808667  0.4813581465971156  0.9889516741863008
  0.8546726832434902  0.2371125072898322  0.1087909898228850
  0.8618511155580857  0.2423993992984264  0.3636361294914853
  0.2294128635065229  0.4931622024499405  0.9877908685025708
  0.1016411611006264  0.6171523393587927  0.9861643432839237
  0.3522717047151394  0.6125131199358903  0.4823608427398861
  0.2285953387896990  0.4909680182284625  0.2381847277833151
  0.3553431804693367  0.7354507991320783  0.1168828456152640
  0.8552014629454817  0.1064085267604772  0.2341785691050239
  0.4634051415736077  0.2331701788809577  0.9927709085141058
  0.4815180975477087  0.8628890595003188  0.6063513447643220
  0.8552941463861382  0.1069310180642415  0.9857846856291537
  0.6063872457499540  0.3612170714966049  0.4813688758369443
  0.9841373300531375  0.3628222858821297  0.1102888996769464
  0.4661960711548660  0.3746930120036802  0.8528851327863821
  0.6077120954970239  0.6080275116453530  0.9923373091686251
  0.6007757395654981  0.1097377404839348  0.9838146080215048
  0.3407180924353167  0.8652646264429398  0.7253854578377202
  0.7291188558561206  0.2356257785506229  0.7377830778179547
  0.3470150223684321  0.3457648502533284  0.4941359439451170
  0.1157320164980239  0.1031042988686660  0.9754758146978207
  0.7287927174904625  0.7316865613582090  0.7330914306493320
  0.2506400293269688  0.0477330346553061  0.7869786589332526
  0.4872219034219688  0.8531473403022457  0.8630859712811916
  0.9842714516099235  0.3582195528587341  0.8599863295040938
  0.7272993184270786  0.9857190647119611  0.4795075047685608
  0.1034988822997573  0.4933792483676824  0.6088521355108909
  0.6035068227032775  0.8587376540052052  0.2423663833682136
  0.2296838134661176  0.7362757406183759  0.9861307620197453
  0.6038596780146067  0.9868073609178510  0.8602640534715686
  0.8529056578107226  0.9824367310238449  0.8621017481107784
  0.6028677901178338  0.1085015784279527  0.7345640289241642
  0.8570813210909002  0.2311951145412122  0.8612785598685101
  0.9760948389948302  0.8581138978496063  0.3575999941496419
  0.8536126940795477  0.7341460448930434  0.1157542657935218
  0.7279016268875776  0.8609715792080418  0.8616761762775179
  0.2279980707749555  0.3661652783780906  0.1135598417426970
  0.9810798296566579  0.1056613855867686  0.3555639776340828
  0.6050784740990045  0.4874017601694756  0.6072495503903826
  0.7294629450641709  0.8560416000527409  0.3579530400550052
  0.8555653682643667  0.6067561761312362  0.7296304278841659
  0.6045725373778377  0.8575877580481136  0.4829019315817867
  0.4765714166580014  0.3638387669146079  0.3580867252038985
  0.8615527686932933  0.1073443576258357  0.4797754730748964
  0.7314415568096171  0.1118406629718174  0.6055042456431724
  0.6041050267228455  0.7325807800160729  0.6051121073867615
  0.7294302333826923  0.7336779409757220  0.2371160450897972
  0.4779602883612309  0.7339196110629214  0.7291056646091754
  0.6051350522641402  0.8617522123026844  0.7301604691869266
  0.9803867156525604  0.4883819024879330  0.2361217740751580
  0.9765186542876410  0.7350179253409805  0.2373446961929185
  0.7270737022677450  0.9830529188277592  0.9895874937561405
  0.8529630183345128  0.8560634880336210  0.4825533060361746
  0.8559155656814820  0.9850587616093288  0.6058609094856832
  0.9781657338788665  0.6121474440461825  0.8593026282925376
  0.7289203620864433  0.3603882193070722  0.1160416102726293
  0.8525796378145911  0.7323652294465963  0.6045213834647306
  0.7283147668406628  0.9821247439745537  0.2364552794091884
  0.6046320294563811  0.2358458189599988  0.1130538123032047
  0.3541919804410470  0.7399038564429800  0.3629962825875796
  0.3520270051534079  0.7343443558407761  0.6085725986871822
  0.8569568660976650  0.9804593889877683  0.3563612474283694
  0.7309803773031727  0.6090166109551274  0.8610859458389207
  0.3526506834679732  0.3730553942387772  0.9912628726021558
  0.2253990785715761  0.8594629413979332  0.8577769826923377
  0.9776787497361135  0.6125576816605268  0.1153765437572370
  0.1043172563148576  0.8592224424708647  0.7321052626931897
  0.9879107981801717  0.2310625141161753  0.9830180668174868
  0.7293463286061390  0.2369443476672348  0.2344490932054472
  0.7305428500811761  0.8582842659945233  0.6055895550465576
  0.8527856180030393  0.7338501965463562  0.8609773725998902
  0.0920694584015296  0.9718566216451595  0.6062288391790769
  0.8598494758106396  0.3606998121304068  0.7297065449316267
  0.6040321812164433  0.6097634532394232  0.4847944170946578
  0.1046876458816352  0.4902903228008205  0.1120837313528899
  0.3487478789578155  0.4884706319132548  0.6072826895615160
  0.9851047143920182  0.2330589235782985  0.2320569859588222
  0.7281088593754147  0.6094221872623865  0.3600533365130680
  0.3468925743860184  0.4951705225989205  0.8548489112518939
  0.8572550731260095  0.4879824306664992  0.8572110732939416
  0.9763847781789209  0.7367882686371012  0.9890232168520405
  0.1055802429300433  0.4916483351935353  0.8586309274610304
  0.7326242691411801  0.3599753521119425  0.8599432636490469
  0.3516840835507785  0.3644973972013276  0.2363647524223797
  0.4806949871432949  0.6097747708042088  0.3621844785503323
  0.2272832198319828  0.6175407770371628  0.8589632923126612
  0.7296331961165277  0.2339239109408968  0.4798189444280686
  0.9817443118365456  0.1058288108183877  0.6061039480873794
  0.6013924586276798  0.6091848257974661  0.7309125498731674
  0.9773232167797132  0.8578296360695281  0.1149395931112929
  0.3504581576117762  0.2346857162781114  0.3556876103863881
  0.9803363512584533  0.9803404555400000  0.2322523809347967
  0.6074007087527904  0.8577444652531925  0.9904806504340524
  0.7294593990979543  0.1118383017915544  0.3558022721698298
  0.9843074339382328  0.1057438855062340  0.1099122397564578
  0.1051231562110935  0.3631245372010015  0.2341870497864410
  0.8517901485826211  0.7328172994536707  0.3592550440049965
  0.6079384778328953  0.7304991270858786  0.8616600350727914
  0.7257641724486242  0.2363729324164172  0.9836881090193826
  0.9793055784220251  0.6092989910439359  0.3588249891551261
  0.4800296112090693  0.6112810027182689  0.1175253449906107
  0.1015235445964547  0.7347659824074106  0.1162025639330621
  0.7320022690952835  0.6065750598691017  0.6028846465548527
  0.4773030487414067  0.1056450680323354  0.1147940557354322
  0.3495235542854885  0.7365782990395888  0.8570831775228325
  0.2277670609267708  0.1088200512148211  0.3611957285773292
  0.7305828777130244  0.1079148159657475  0.8633656581136242
  0.0999947598304338  0.8583760103761688  0.4806536063324697
  0.2297871999564588  0.8586610761478540  0.3627290188258661
  0.4764705904583371  0.4923667679200719  0.9897735759132761
  0.7294102331413850  0.8582402757211388  0.1167177455589086
  0.4757904148803282  0.3667307663325485  0.1150455403406873
  0.3541530072190163  0.6144294910680241  0.9881040042345706
  0.9737045141763737  0.8554095373225266  0.8620294773115706
  0.8539102882570256  0.6070270069426213  0.4816882685286965
  0.3511721653599360  0.1060292600399668  0.2368535688626704
  0.6039381773592721  0.9881011566624334  0.6097002388847018
  0.3567234306401790  0.8504738657809973  0.9938114249353970
  0.9789952689497087  0.1069986392505530  0.8592319706482863
  0.4784060051487893  0.7358551281731820  0.4840658792850419
  0.4815479646036016  0.7364984224705821  0.2420760168701540
  0.4812627498475712  0.9825471702311511  0.9911779838759234
  0.9803330803838015  0.4903057384800262  0.9876188991818861
  0.7249307168808446  0.1080506876755272  0.1121131872109624
  0.2278824307097327  0.6168299605991867  0.1165503312372843
  0.3596185731698885  0.9642993685320286  0.8785149801681693
  0.7301592340769560  0.3612055319130337  0.3563031233989249
  0.1107281545112362  0.3617454696128669  0.9843147896041343
  0.2276065950376669  0.8559906094685823  0.1177535378036321
  0.1031123550052504  0.6130707784310938  0.2390620100607005
  0.1031215607722392  0.7363853538633006  0.6069543646969408
  0.2247944666946059  0.7338717658006694  0.7321168784732257
  0.3552438502712723  0.6140408544749650  0.2431499671894568
  0.2255473896872276  0.4871821516498641  0.4843648955433057
  0.2275129269221190  0.6136555693504837  0.3622492724759422
  0.1050316975303666  0.6123318811023086  0.4832503460228298
  0.6065011172006436  0.7347328420408707  0.1165882543926659
  0.3544741856254344  0.8599740049660076  0.2402052339881180
  0.2291507064652718  0.4971075544373338  0.7330008651439350
  0.2276234391924247  0.7390267852571466  0.4862321666484050
  0.7325730124960097  0.3615945203171108  0.6044467725873828
  0.4773883736604354  0.4842237877273682  0.4865210412434348
  0.4827730832580799  0.7321974413248467  0.9916291693803747
  0.9783085303105531  0.6102562302072760  0.6064626855199582
  0.2247894684491297  0.3600353576726214  0.3601706960816730
  0.8569194679633459  0.4855027666138906  0.1150195733347516
  0.1029968340683364  0.7368746938289763  0.8580494131958140
  0.7285021137279586  0.7342060998988392  0.9903009879208062
  0.9813302840222691  0.4901626437440650  0.7327881118227133
  0.9733729202480306  0.8559660265518912  0.6044012212619697
  0.0928007041953452  0.0931426840608724  0.7330053998477115
  0.6038916372524360  0.4871124000381321  0.3591492200645217
  0.0963026349874609  0.9731176925913728  0.8595204381118732
  0.8535009411604403  0.9818114011680413  0.1121068527750602
  0.8591554719988709  0.1097740220928421  0.7329025597045056
  0.4799495422581919  0.9812751253548507  0.2364239891010871
  0.4776327280883059  0.1068282125256731  0.3551804294068431
  0.4760775571602768  0.9878105535027712  0.7363362030613397
  0.3530869663298106  0.4839862784227936  0.3620195071445358
  0.7317228601005457  0.6109609232265009  0.1174882748232429
  0.1085646440318553  0.2352798877743072  0.1054842027868385
  0.9777510624216411  0.9810968154747371  0.9889149303608944
  0.6093858678384793  0.2338374666750116  0.6084886170293202
  0.6012365446644166  0.3626852714604448  0.7318770017195313
  0.8562727337475665  0.3589401957583175  0.9838649006266071
  0.6041405144419409  0.6097493812023710  0.2379977012858315
  0.2307795717466979  0.9699591942072149  0.9878621079855520
  0.2286074400066839  0.1026459238155006  0.1124447689276270
  0.6022853003209123  0.4885082054860991  0.8564796472872754
  0.1042136508298752  0.9802554300801257  0.1132688397101731
  0.8508042714835937  0.8575107322190079  0.9870080977921539
  0.7288528819105622  0.4843765762457188  0.7346241768696697
  0.8633020923861929  0.2323367754900083  0.5983140774735348
  0.7296405684369167  0.9887216982569442  0.7342359785972026
  0.9786608307974096  0.7357687163428187  0.7337670440633779
  0.3545553687490572  0.9799896791639897  0.1128710699961499
  0.1031374952084712  0.8547065484045401  0.9892414673917801
  0.4735901112036002  0.6145113788984543  0.8560970635487015
