 C Cr Fe Mo Nb Ni Ti 
 1.0000000000000000
    14.4762002749200285    0.0000000000000000    0.0000000000000000
     0.0000000000000000   14.4762002749200285    0.0000000000000000
     0.0000000000000000    0.0000000000000000   14.4762002749200285
 C   Cr  Fe  Mo  Nb  Ni  Ti 
   6  56  13  24   8 144   8
Direct
  0.2300828833686032  0.2926921776429480  0.7316413074952098
  0.3510521822583773  0.9949153732574170  0.4854760488224168
  0.3876795270375872  0.1119694150032050  0.7272077462464922
  0.4240595650393293  0.2331633364603147  0.5746220723097267
  0.4665787785075022  0.2326827672195414  0.8549328178102522
  0.2394505997061136  0.1538819539000554  0.8924857159471808
  0.9856998474873987  0.3714583520267677  0.6069450609200658
  0.8541622733717337  0.8598860904141680  0.2363242464556095
  0.4766921037328357  0.8600562171982781  0.6055886289085913
  0.4737404839802802  0.2287443493268307  0.7190976310902734
  0.6044906086142399  0.2339704322795645  0.8541601112353990
  0.3442813253940010  0.1141160257666803  0.9737024459491446
  0.4814876446163971  0.1031662694237772  0.3573651863212386
  0.7232850610026076  0.7304897063346786  0.4787733936829563
  0.2280918046581583  0.4978838099726681  0.7325778434310944
  0.4677971039536995  0.2326217693077524  0.9887736880176823
  0.2272955269641379  0.7399446007537058  0.4845346442131571
  0.6057056263367820  0.4865305425573699  0.3587315821744659
  0.9735931516219374  0.9841614510179215  0.4830323244124065
  0.3442126166283003  0.8625890670357390  0.7270443874581912
  0.6084064340441384  0.7329987711473017  0.3620637730396601
  0.8546287639579156  0.6103427423997069  0.2383637619200495
  0.1454213515403652  0.2234972257334083  0.8187828655843868
  0.0895542786258005  0.0990674831635257  0.7317522734272929
  0.1019029715781437  0.2329346791417437  0.3583061097706408
  0.3304554817584142  0.2218994351593145  0.8213114054628494
  0.7286907308661338  0.3653558004372980  0.3557307063331481
  0.4940928404536834  0.2341018263732992  0.4557929765998511
  0.4838668084717284  0.1113871975285963  0.6071164261496176
  0.9795962142857391  0.4912676429921469  0.4909510223320310
  0.1088027791593867  0.4902015714668945  0.3597133804842276
  0.2201738408758877  0.9854111250625276  0.4815731278662630
  0.3570850958960329  0.9872909938091243  0.3535084824234703
  0.0984265152570149  0.1138247250827553  0.2358034697528554
  0.2308330327600383  0.3664208024603951  0.8609398708893766
  0.6080995133252814  0.2327810488871557  0.6095859277329038
  0.4797718309135700  0.6124255241980212  0.6083890597981638
  0.7320661440492490  0.4915544144538895  0.2380368166441194
  0.2247824976326792  0.7324932156761230  0.2434821993508281
  0.1088096609262681  0.3614407336501052  0.4888979148079255
  0.2075448176089436  0.0919517254324506  0.6016042114629847
  0.3445507110232920  0.0089111952462395  0.6189869240805533
  0.7277571201484893  0.9791216459590434  0.2332928930049827
  0.3608504118105090  0.1300096948894986  0.4887903717073662
  0.5973680448159385  0.6147495226937449  0.4844383520324187
  0.4808136326281557  0.3640590833893098  0.3594852051106062
  0.4828200582316329  0.9880365191246581  0.4860368068168092
  0.6132523749121550  0.1032390035961566  0.2290200113938217
  0.2280254662344093  0.8724078831108513  0.6114886054011164
  0.1057207823927893  0.7332979276713095  0.3563139299089640
  0.9810760559820587  0.9826244407450940  0.2312480654816192
  0.4615313634804196  0.1005078519983744  0.8566474948815007
  0.4776956141574213  0.8646848514330379  0.3608900247593639
  0.2346621263527126  0.2532868343250363  0.9833312645691088
  0.1074467677333317  0.6036300205966777  0.7312697762963640
  0.4842803315292389  0.6101343737357259  0.3581536709093954
  0.2227380901263195  0.2325337043218186  0.2346284084423476
  0.6169314608409272  0.2355780049469932  0.3537817225045767
  0.3126420040230922  0.2046165539061995  0.6505668624751417
  0.9829961357147943  0.4952583726880339  0.7287324418378206
  0.3517708143023299  0.8594989289397559  0.4895704212790516
  0.7290589038285417  0.1075816738510666  0.1077061684685236
  0.2286112478096436  0.6110629690692766  0.3604993943891623
  0.9795005530109013  0.6089943883573981  0.6073876068331131
  0.9779406069300945  0.7335555708555539  0.2358321463482388
  0.7191683519972989  0.2378660832646113  0.7332302122526532
  0.6031681372019082  0.2336100562307929  0.1128641566569027
  0.6050098942125649  0.4873963112474853  0.1130894535860193
  0.1031761764364372  0.6084170127365132  0.2381204463137155
  0.6059947973258917  0.9819161209006413  0.1124287626984983
  0.2257701254178414  0.4872476237346282  0.2406262184661741
  0.7311462760933318  0.6132853287176364  0.3565847426560589
  0.1076227135113696  0.4897089612670094  0.6056439358433610
  0.2248532007811000  0.3676562915946523  0.6120963834991138
  0.6033262208472994  0.3603386909423414  0.7383584385781349
  0.1157356983641317  0.2342569140103718  0.6243232380676524
  0.6066553220345696  0.7334448568116401  0.1132360900129029
  0.3523696980553508  0.7317383756861158  0.1175399912042915
  0.3509762402813383  0.4872650939871849  0.1161102094405371
  0.4869058621099908  0.3646389646750439  0.6133756481408477
  0.7279231326566346  0.4885147442354407  0.4817216027074527
  0.9805263842725970  0.3602171188148698  0.1084701352057634
  0.9779921087692394  0.1062279836241626  0.1061696495449563
  0.4721904850706116  0.9846060212161704  0.7320112552715047
  0.4708857023619710  0.3718435403836766  0.8556426731746424
  0.9831052242312056  0.3673010659395445  0.3665561177817193
  0.8515914078624733  0.1080173048739584  0.2330409278610253
  0.1052241134939202  0.6129557461560198  0.9876141726809540
  0.5993905906984078  0.1122446611565403  0.9878216341604129
  0.3573914636056616  0.6103061378099619  0.4798422906333830
  0.5998039205608283  0.3587592625006266  0.9842827713175468
  0.9823107237166964  0.7301961021350517  0.4816968127423638
  0.2292950827604821  0.7330220047466838  0.7342244440063891
  0.4808771196493691  0.2341401455432792  0.2397397076540670
  0.8544352558387899  0.6102018927029565  0.9862204605796187
  0.9730022556453721  0.9794937391662338  0.7374868162819239
  0.8539163669272541  0.2382433068113537  0.3646628575575537
  0.2191070713837746  0.9846226853267437  0.2393538345419900
  0.7294945623593441  0.3643632546814612  0.1116643571231190
  0.9903733622300256  0.3644034502891321  0.8595188786228423
  0.4842142920602610  0.8494022689366836  0.8682045363462999
  0.2517990941614315  0.0462709521573286  0.7855251258227341
  0.7289416205844927  0.9822290366190431  0.4820592609918631
  0.1188352556446264  0.1054409337405092  0.9698611016140384
  0.7274803714034315  0.7323890318884623  0.7369551305952960
  0.3462076607603304  0.3475384275174603  0.4918630218896692
  0.8459871985889786  0.2296652892855798  0.8571948516740383
  0.1008327752510825  0.8569983666083124  0.2381636088978006
  0.9750887864085234  0.8565403398008538  0.6061437608888607
  0.0965012212384166  0.9832463848360482  0.3609006836154546
  0.9784400676571394  0.1072804238426892  0.8595423945591464
  0.4769005041278831  0.7385109739460943  0.4821638267147618
  0.4803521223699927  0.7348542041173408  0.2396127200451224
  0.3490979104510279  0.2343909469380104  0.1102146187261298
  0.8557098989318125  0.3628946833931879  0.2358301107028606
  0.2286475854650055  0.4876571967336866  0.9885947148899968
  0.3529021350011637  0.8479669288308850  0.9944513724094280
  0.3539424416827107  0.6102709306311619  0.2427037928713015
  0.9821429362657961  0.2362528968554136  0.4915408325845119
  0.1094591092282920  0.3633601911304318  0.9882639052423677
  0.2263774843394566  0.8540044956707707  0.1182959747170117
  0.9813447866405562  0.4884225083089914  0.9891087003126263
  0.4813649421066227  0.9835317731415767  0.9919762494110942
  0.7295029207111905  0.8569714637194547  0.1135437593831189
  0.2266209271636947  0.8583896570468202  0.3614469086340791
  0.4792395239766986  0.6089719424158406  0.1162726883133478
  0.1018531739028353  0.7337147895059393  0.1165207156531689
  0.7298035537421922  0.6132542849307272  0.6060907130216161
  0.4758199040000067  0.1100547612563316  0.1127472187322640
  0.7253462012085384  0.1059227921502866  0.8596401458438423
  0.3502487702500018  0.1090274892666728  0.2348938901409217
  0.6023033864616617  0.9819134362710035  0.6093603238845278
  0.1014199243760367  0.8592883275968478  0.4831879280465987
  0.2285689221404516  0.3622510490153162  0.1162193688813605
  0.4774424440012714  0.3601727352785354  0.1131984581711139
  0.3513647321851253  0.6104296481514063  0.9894848719179669
  0.7276279417521994  0.2341369986470332  0.9866918025696326
  0.3505393113578538  0.7346023602609362  0.8611166366962083
  0.8559096428903890  0.4895059135593902  0.6097091544126600
  0.2282885559518511  0.4860221301537144  0.4834299592766509
  0.4771143437337906  0.4892357913772954  0.9904885650180554
  0.9754249540006694  0.8540102946261415  0.8598753424919980
  0.2288103318875904  0.6134738591662259  0.6041867856179841
  0.6037643046438860  0.4895446447974981  0.8594306348581005
  0.4820780678288763  0.8564102341221197  0.1135187546678824
  0.1069781625812161  0.2355040961246916  0.1066565493925701
  0.3586756650365435  0.9640440785554201  0.8816899077809262
  0.3479660327360297  0.3688713483976140  0.7292698238360741
  0.6038717592664460  0.9820248057249820  0.3576545618908464
  0.9771721511975933  0.9818153844180034  0.9831666963890323
  0.3530302558193162  0.4815082663686313  0.3594328817589004
  0.7317404703900754  0.7336452360684058  0.2348996415304495
  0.2283874567130601  0.1087564140494451  0.1116155861343973
  0.0980560089231866  0.9728993244214739  0.8569147953416424
  0.1044590797175730  0.9814401003731282  0.1093178702221914
  0.9815063976020930  0.2351745698024871  0.7363067439984059
  0.4774021959028277  0.4917960935416779  0.7325006768848678
  0.8544210587668757  0.3645139227739465  0.9843743873442410
  0.9749902041480285  0.1072719108743166  0.6075361724614178
  0.7300066503998580  0.4872127528879390  0.9849459059638312
  0.8532100531590908  0.6118160792930505  0.4833404178581708
  0.1070611823296850  0.6102398510827262  0.4840083797645216
  0.9800836436876434  0.6084951638403470  0.3594870326338395
  0.7256950868973163  0.3623094068608679  0.6106209446361880
  0.6072146159524391  0.3610416410391354  0.4829963949540798
  0.4797497794286207  0.7286127012332144  0.9936684953042887
  0.1055611929611645  0.7365475635782988  0.6072620705324224
  0.8573190615942728  0.4878831560927405  0.1119018872190636
  0.7283310429961228  0.7313467680416508  0.9879227977864709
  0.8539438954853771  0.9796320296499432  0.6080753938841681
  0.6047409621335839  0.6070615050678377  0.9895400104994692
  0.7306745265600411  0.2371259483584707  0.2299057663820437
  0.3548770372523982  0.8586690378229048  0.2388137532276244
  0.8527744251499314  0.9779102713636676  0.1089761800575541
  0.2189798785420894  0.2288454539177604  0.4837997076552932
  0.3477649374970717  0.4925257184902553  0.8601237404948932
  0.1022585987967656  0.7343024227767825  0.8593125773054756
  0.2312811147796194  0.9719373580128399  0.9896462210529727
  0.3469946935197241  0.2323144240211903  0.3540406317483235
  0.9775209225347290  0.8585927447461539  0.3594036221303617
  0.8562788733503190  0.3633117567791437  0.7308026307017584
  0.7289475963972839  0.1092477332294061  0.6106511921009802
  0.6005008759127946  0.7362278155503762  0.6067602564868981
  0.6049288845754781  0.6104846913967291  0.2378590016126514
  0.4751940637049238  0.7370110676221541  0.7310688453570339
  0.8544466078526348  0.1098401804729033  0.4851381707050863
  0.3530395978313465  0.7394679522934091  0.3611321778534636
  0.8549662383798573  0.4884906842171687  0.3600466316462743
  0.7268813689369131  0.9830361635244659  0.9875000795878794
  0.7311116104410489  0.6094774883050351  0.1130268773258360
  0.8536510705334461  0.7328358816441143  0.6062431966832290
  0.6072151459032967  0.7291865263732815  0.8641999718054418
  0.6012393348367902  0.8581680261397708  0.7305520354228819
  0.9801884959519361  0.4871230162200785  0.2341675388471116
  0.8566452225637420  0.9807211373429041  0.3565569165890164
  0.3549050451226389  0.7367890297610724  0.6081535177951991
  0.8512131613889903  0.8573824781403142  0.7333348913556449
  0.9805180654112688  0.6104828448399169  0.8593458204630382
  0.6023087739091013  0.9842009982451962  0.8612717095583807
  0.1051682425164600  0.4862238178038025  0.1130956255039049
  0.0940039304880735  0.1081570692373401  0.4819000588509280
  0.6045289006111932  0.4915587284501504  0.6096241481489916
  0.7308496201631695  0.8559181688632820  0.3575877712886515
  0.1079566975398667  0.3737133483715746  0.7328702742033828
  0.6037174904539504  0.8578580150767974  0.2379258897972531
  0.2287504767975616  0.7337927682567948  0.9881345912235738
  0.8521585208565109  0.1053356713004643  0.7312540179036615
  0.6060441778633572  0.1088583347635980  0.7339509661094461
  0.6022156547642930  0.8574497062005505  0.4847496633945207
  0.8558906107279929  0.6089711478112015  0.7327356527355947
  0.8544348507228511  0.8553731951768712  0.4832404864561133
  0.8550823921152518  0.7332872646499715  0.1136203227027375
  0.7262171505684181  0.8587751313582122  0.8630275830213838
  0.8515926342151852  0.9826184111261592  0.8627992265216804
  0.4822056109553199  0.9829538627862452  0.2332675501002422
  0.6049245945810442  0.3635709336317071  0.2351517025785676
  0.2263227123267681  0.6119020753132546  0.1164591748143080
  0.9796237825122870  0.2382843864417847  0.2332868130508090
  0.8550508162064726  0.7339876221516317  0.3597885709298290
  0.2279637665123451  0.6134268855782022  0.8630735599248719
  0.7278245829964745  0.2365578102360975  0.4845000442086389
  0.0916412905438164  0.9771620618863897  0.6058617365923589
  0.6004107613035927  0.6119243401755130  0.7318909433146463
  0.2240805165631375  0.3579180267741902  0.3584236033864658
  0.6078121110770291  0.8584010060366005  0.9906740810769544
  0.7303988101454746  0.6090244340594402  0.8630088566529337
  0.8508153870160649  0.1051884635009586  0.9857423500672099
  0.1083027233316024  0.4914486395842148  0.8617276678851871
  0.9786870648566509  0.7321622237301263  0.9879704914085530
  0.7289892237176648  0.1082705629746235  0.3584201661610500
  0.7279210693132790  0.3627171106952188  0.8603335209274221
  0.9788418093212807  0.8573516912206779  0.1130403503407733
  0.3511070078990577  0.3601962744295317  0.2375143206109991
  0.9770512483694916  0.1087088653948044  0.3603407020099768
  0.4803460439569637  0.4853111620138251  0.2359832864508023
  0.6069622614001605  0.1099351397670237  0.4835277210582534
  0.3539913327980266  0.6128370582644446  0.7323729583299908
  0.1044032139292856  0.8600188565149365  0.7313438046515721
  0.3541052271256325  0.3668919892789168  0.9896320059656667
  0.8546353749811578  0.2367000220219062  0.1045254696152722
  0.9798724638586129  0.6120652997181991  0.1137238057382710
  0.9827226714066779  0.2366207355282773  0.9822406552220001
  0.2274334244080788  0.8589153149976740  0.8584457550349306
  0.7299298038510235  0.8553028882756730  0.6060937775253388
  0.4812882628253390  0.4848448173403395  0.4828783075572249
  0.1043995929243672  0.3603363684455574  0.2356061492981190
  0.3533650773258865  0.4904691751623959  0.6097239881341807
  0.8578696209116483  0.4871734290682192  0.8600370242765663
  0.8554213341024368  0.7317856192600261  0.8611642318018740
  0.8534951256454955  0.3642002056338888  0.4902339961666842
  0.2252257812288459  0.1109809236795218  0.3611763790176122
  0.8519678199695512  0.8554910746662135  0.9853581699799259
  0.7294880573717302  0.4881382612554007  0.7354343604062333
  0.8512252811022200  0.2346483095023548  0.6125503635380788
  0.7276431352093566  0.9806868627097260  0.7354953867710742
  0.9788353316090493  0.7359935948667125  0.7331420711047574
  0.3569092071577148  0.9796878404310799  0.1105885477757438
  0.1022590893397827  0.8559264872866348  0.9871641113335518
  0.4779548963093204  0.6128305181233372  0.8622916000178460
