 C Cr Fe Mo Nb Ni Ti 
 1.0000000000000000
    14.4762002749200285    0.0000000000000000    0.0000000000000000
     0.0000000000000000   14.4762002749200285    0.0000000000000000
     0.0000000000000000    0.0000000000000000   14.4762002749200285
 C   Cr  Fe  Mo  Nb  Ni  Ti 
   6  56  13  24   8 144   8
Direct
  0.2347141801164387  0.2673027548643797  0.7223378550524832
  0.4880754800811091  0.2355458560248787  0.5996008843637833
  0.3924324665850461  0.1091153015763627  0.7289636383607182
  0.2440053833221517  0.1130783720125472  0.5606186790923026
  0.4781741507719507  0.2369180923784892  0.8654161412073182
  0.2394863526307570  0.1209305187532963  0.9282496196361621
  0.2356051250878936  0.9875602278117186  0.4845582720868367
  0.2334775902527005  0.4850027960585462  0.4842850739598934
  0.4769060809971154  0.3686696721438307  0.6133409420843093
  0.8540796641930699  0.4939452703048487  0.3591622554896786
  0.1070687771288714  0.2397032268607244  0.3570235835184026
  0.4788209072863538  0.2322331379124735  0.4686665379397118
  0.2419867257673946  0.8619997973499982  0.5979026428212877
  0.2387648906706653  0.3673055964995823  0.6024162621057166
  0.3456724237239299  0.3710055530662087  0.7329690231257249
  0.4828257559487049  0.9896650223754065  0.4781909699274101
  0.7319856850040357  0.6116524212877188  0.3587339166777602
  0.3548658341813491  0.9842651771242464  0.3624307492848327
  0.6084248989751786  0.4889020663678026  0.1116448152435734
  0.6072949407837418  0.7377253949403492  0.1139249259029273
  0.3404652845677531  0.0162897340773051  0.6227307638872722
  0.4919139775951430  0.2353360450055180  0.2389922967927954
  0.4792123281689016  0.2392918877749571  0.9970001553855619
  0.4788153766774539  0.6118263102363160  0.6095460800494509
  0.3521234923247193  0.8632491176312270  0.4831513947892038
  0.4791979934301648  0.7386938715919497  0.4858201465119120
  0.7313488298233675  0.4892013917555141  0.9902982757434696
  0.4763286028893057  0.3700091094430860  0.8563590942632319
  0.2386577506761848  0.2436845873920795  0.0026887302517995
  0.7402634590043805  0.3681246578765433  0.3585312525250502
  0.7348512380178150  0.3663652305148430  0.1076503951715234
  0.6054378853406971  0.2379654255206581  0.1045486352194560
  0.4772113019372661  0.4855402186592057  0.7271226947441194
  0.1080910716963234  0.8590156252910882  0.2368301221629124
  0.3578519386108031  0.1079117935685981  0.4730217888800087
  0.4837959266655709  0.9947484654515641  0.7332930335255050
  0.2335549753011445  0.6134381803678790  0.6063414517735704
  0.6083353137692838  0.3694443444767334  0.2380771733990806
  0.8539219884399971  0.8569191857178036  0.2345670919108225
  0.4899448919228744  0.1081290667433971  0.3539972744858321
  0.3574610840032312  0.2404321919272548  0.1171442860751854
  0.6107219398857442  0.2407292384861541  0.8716372882777347
  0.4903477079529098  0.2302204663119143  0.7329783765382494
  0.9790680863952874  0.6109756536978828  0.8626698513281653
  0.2410656605784439  0.1189983367767404  0.7058669541627465
  0.4838566022052827  0.1010746709989866  0.8549839004914278
  0.1040769639145339  0.9802545256668831  0.3614278368136375
  0.1053129733564457  0.6137847987347802  0.9894483839633028
  0.8498225439867432  0.3672481819478591  0.2344864028147277
  0.1070004664750463  0.3585187026908833  0.4908659535384959
  0.9801593913740851  0.9804022515106212  0.4824781949042715
  0.1060419328263199  0.7331512475294381  0.1168445474148177
  0.4874642488584142  0.1000437880648328  0.6085663773298182
  0.9722446781800937  0.9816290414760180  0.7380464880279902
  0.3577505517472659  0.2381502457295999  0.3560986055107420
  0.1135645173766924  0.1108110170219620  0.9913211596105468
  0.9837198796115993  0.4864848357088875  0.4887109133594660
  0.1054951013318172  0.6134100771331549  0.2337032895077757
  0.6063204363958407  0.3656807108551430  0.9854176582795734
  0.2399449878457635  0.4989025954306821  0.7350561479511154
  0.6059217847180024  0.8558814328127184  0.2366835819603798
  0.7296902014956169  0.7338127844492250  0.4850723975844477
  0.2297763243210250  0.3619915688922008  0.1155162423386636
  0.3600044447236058  0.3627380548102935  0.9874441433777076
  0.6069624575501168  0.2352115881805127  0.3613615315252871
  0.9872793607174043  0.3650995321613182  0.6079223277391147
  0.6177467793757707  0.2362339751975010  0.6058552616859798
  0.7324051897655409  0.1138427866691379  0.6086042594955362
  0.3537566922996302  0.7331871774510766  0.6098351735540692
  0.8561793630602862  0.7318594187626259  0.1091350734463421
  0.3546763324219893  0.4915893678775951  0.6034959674764019
  0.7314898822386909  0.6105857694184386  0.1124760833830337
  0.7304474539852861  0.4882571136943982  0.2341116124894788
  0.3558652591514832  0.6141639018891339  0.7301272799185852
  0.1057219482651772  0.7380693788040675  0.3603264784848840
  0.3578167743738268  0.3637759485340991  0.2399316610215949
  0.9766687420131427  0.3639296278275994  0.3598905745168040
  0.7258414368729762  0.2396170256259920  0.2312669401130477
  0.1109771037534952  0.1068119996500664  0.4773412273279625
  0.1243069291327898  0.2207245862347158  0.6187629383229306
  0.6077282156554775  0.9802760069462789  0.1144728817669402
  0.7273251459882902  0.7298530519429443  0.9886099640629398
  0.2297583392565505  0.4876301072469580  0.9863486879779765
  0.9837765946484029  0.7338699406191227  0.4800349252269879
  0.3596432495148792  0.4883088873021074  0.1112220476273502
  0.1079213553979894  0.6127183620225867  0.7339044314679855
  0.4828027119880658  0.6152748176670380  0.3619035814434757
  0.9801642175314398  0.7333551788349695  0.2362275459256226
  0.8569001227982125  0.1093623376581877  0.9846731653338907
  0.8582100600834197  0.1104216506025385  0.2367114610513590
  0.3430420904747560  0.2214740974334931  0.6189833629297040
  0.3549067461401620  0.7377280395416161  0.1112096521127688
  0.4733452818560892  0.8700463703094355  0.6086572003968226
  0.2303536576608765  0.6144793136387418  0.3588740047123392
  0.6071757884915598  0.1084145064374545  0.9843212779755620
  0.6119563955607630  0.3639975634590407  0.4833501529706938
  0.1055711658765918  0.1098682119225482  0.2396099675821789
  0.1186171786931606  0.3688978960903192  0.7268953483784203
  0.9812863792813237  0.3627260256409875  0.1118791079050190
  0.7324324520705188  0.7326669916676629  0.7376488642837209
  0.8612862077112963  0.2352840568037731  0.6035386681600552
  0.1319751099591501  0.2112430394999449  0.8456344665463277
  0.3327474134178289  0.2159884890818517  0.8376747123596835
  0.3251623729629607  0.0133671003760008  0.8441358835053130
  0.9815838758369676  0.3610060876429235  0.8614855916052307
  0.7332683512614557  0.9846389814808543  0.4823728443649066
  0.4784694715296444  0.8624107735639647  0.8608327249711105
  0.8580080752594129  0.8578204715213040  0.7341370197666259
  0.2300974191249280  0.6146346994694661  0.1141173657225557
  0.9789166762861092  0.1096072519407812  0.3595731607920408
  0.8563322797747447  0.6115341578439728  0.4854656820049645
  0.6077996563071291  0.9814586283471630  0.3570045662190562
  0.9868258567526412  0.2351843826107587  0.4839678155283154
  0.9843106039113960  0.2316600706386940  0.7340163703445212
  0.6104408405182671  0.9832419169382117  0.8596196031910324
  0.8586892308596266  0.9839725526056872  0.8617389992292486
  0.6124295697913554  0.1082421390604196  0.7354163473326125
  0.6050007044366903  0.8580540748469133  0.4846924672788577
  0.8568737672682881  0.2361322390919960  0.3620441571803202
  0.9789872198509989  0.8610525657884375  0.3599028310457152
  0.7333646415806747  0.8561002559731753  0.3577254943427992
  0.2297488497011011  0.7353302231983657  0.9872464039088951
  0.7323652794840356  0.7346926969992236  0.2325485238497975
  0.9820350466771869  0.4900661149811623  0.2342503577189903
  0.6057522944717294  0.7362784628632822  0.8595361058370290
  0.8595288498020063  0.1099797769188092  0.7361349533649233
  0.6031420077834916  0.7361573182462184  0.6079680725414149
  0.6090821366248893  0.7364128579652336  0.3620478405070746
  0.4771072494455045  0.7367447395523286  0.7305099633750847
  0.8577215970592722  0.6067599900655597  0.7351559074782182
  0.6086757116333567  0.1071231620565044  0.2336443608581504
  0.9817339965698396  0.6125008486548471  0.6084619374946550
  0.7342130094235415  0.9825646270388132  0.9871225989100407
  0.7349799610240565  0.2382933910640622  0.9879552206622779
  0.8532832274698015  0.7335006245946584  0.3611864382180655
  0.8599319514393783  0.1062520927729931  0.4802067552946171
  0.4828186624758745  0.8602365619689423  0.3620336632699838
  0.7312854699138145  0.1093191465700131  0.3572703975691042
  0.4803545247755257  0.4885966864971011  0.4849865147713615
  0.7339235790624171  0.9831241197905267  0.2361106543765956
  0.6053595359833152  0.8608014427236921  0.7314376889985887
  0.8559989236581412  0.8553303174253707  0.4843876294723670
  0.8575266724324979  0.4892091151072392  0.8634875633201964
  0.7329622904776013  0.2338752517588529  0.4790549827067536
  0.9821825274940199  0.7344873084016632  0.9897610740541521
  0.2297732422085382  0.8573528433905220  0.8632857231571133
  0.3555350740684975  0.4904663200500345  0.8597857567006647
  0.9772476233785479  0.7313091644234168  0.7364199351169116
  0.9873846702581008  0.2312763513593335  0.9866888054955658
  0.7337723468664661  0.4911382193534586  0.4837464964087889
  0.7336610740934369  0.8571153325915460  0.6078924837011684
  0.3598243021301472  0.3623577633658409  0.4816565080294999
  0.8587748624486434  0.7335684195912940  0.8635227211246144
  0.1071306089238629  0.4904103280029724  0.8611223840967408
  0.0997166406557414  0.9764084570369244  0.6050567500842147
  0.8590241299527438  0.9808133752670019  0.3568290518648593
  0.7329327018374395  0.6112783387919563  0.6077876977921270
  0.9826991860977106  0.8635002540102239  0.1123868680276690
  0.7304543584209697  0.6078060845339628  0.8623275742554991
  0.4819721262256155  0.4862456043892733  0.9865111820051211
  0.6067156830812307  0.6127238326307348  0.4867474535861463
  0.6014184877838529  0.6117221409659714  0.7329224988916863
  0.1063964803959633  0.3639609800619957  0.2356594488379408
  0.2356739951705057  0.1112779125527365  0.3520992705467456
  0.6072502178131243  0.8604497342063560  0.9879217956108562
  0.9823835856107420  0.1081491116351781  0.1107545476285377
  0.9807686033872256  0.6103941981744141  0.1078429485412765
  0.7348057695662558  0.3642672621723257  0.8653834383901906
  0.4863175665041357  0.4901811418082402  0.2376143797120289
  0.8542656655092337  0.6100413704084696  0.2349218115441343
  0.1056297505577671  0.4866931676051623  0.3617917552814744
  0.2334494745458422  0.3672075225884809  0.8652795859128084
  0.8596120672494778  0.3636338050739582  0.7332858534985927
  0.8552872115394596  0.3678239538757789  0.4845775050612677
  0.1067435273772531  0.4882695860985182  0.1118753429428592
  0.9801762693184065  0.1035007431606423  0.6038790588277609
  0.9793707597059863  0.2358978634781480  0.2341428628597062
  0.9818932274220545  0.9812924545997056  0.2345421812311218
  0.8587309954680453  0.9829621282317452  0.6096466164109053
  0.4847251047131960  0.6141609119295199  0.1115557501928602
  0.1036113657491827  0.7312974118213219  0.8648169682796926
  0.8568675568206965  0.6098565155128131  0.9858425965790699
  0.2289320629204336  0.8607415486972406  0.1128677154994554
  0.6046825966540191  0.4907865103431462  0.6089215169777619
  0.3581884608447083  0.1142103735394670  0.9965170792130552
  0.7342024033304684  0.8593509938847078  0.1129199419365400
  0.9849776321671855  0.4888906547864242  0.9871064064051134
  0.3571158492617831  0.6152637272434732  0.9877079477230990
  0.2283523807703694  0.4889604272925979  0.2362233154160877
  0.2290062552769108  0.8606875832026031  0.3598473174576881
  0.7353211156761600  0.1085643873201970  0.8629872710392763
  0.3597927581545076  0.1128803482892615  0.2386954200351730
  0.6093407761360093  0.9843011153839578  0.6097933454248837
  0.1077413290220366  0.8605568362939731  0.4837186851496258
  0.3569553063426212  0.6146553043790082  0.4851692679499480
  0.9796616302347382  0.8585432612891852  0.8599052563958823
  0.8600864318396554  0.2362429484332737  0.1079800945800293
  0.2360263501865552  0.2370544506146955  0.4756322402112195
  0.4814511996826211  0.7371557208617676  0.2365999491693926
  0.4862995899060480  0.3647339922580550  0.1126065040439536
  0.3581398481455943  0.8588685366215585  0.2393037159417195
  0.2306461288982921  0.7396338057634682  0.2352702251840386
  0.1080155477628868  0.7358406420830530  0.6050154120269595
  0.2330507539144725  0.7372959672284110  0.7347022353603393
  0.9810899609792209  0.1084538496799319  0.8626530955016085
  0.3510122931589122  0.8626799998202036  0.7329023888194133
  0.3531587530631340  0.7355991328489546  0.8582591874970598
  0.1094647514318348  0.3589703680264578  0.9875054357527244
  0.7347650104615683  0.1077178723659894  0.1097626902923018
  0.3574673058250787  0.6135302400033472  0.2359714115893096
  0.3509727630015820  0.8614952468624545  0.9858804129174823
  0.3566177648912696  0.7384614569482801  0.3623710458444128
  0.2305933402256844  0.2373729477983253  0.2359501192654993
  0.4759676151286569  0.9865238291728207  0.9862259671323786
  0.8573965754689770  0.7334603474069981  0.6079764114927393
  0.1088562572943828  0.4908229538813801  0.6044749148029251
  0.8593115313870803  0.4871656761222494  0.6086652200821897
  0.0853384984892844  0.0894193254541181  0.7294922058708403
  0.1053485787758291  0.9865693211163530  0.8617074898420622
  0.7322512908807696  0.8607472779995983  0.8638272406390285
  0.9777987527443487  0.8579529534897902  0.6076937560532076
  0.6102343363058506  0.4910355386738982  0.3610136101392098
  0.8579045492746876  0.9844865755279456  0.1127893351185064
  0.9825955789406012  0.4879684890867683  0.7322125738806281
  0.2309487598388368  0.7361972415015453  0.4838363893175066
  0.8576740180040726  0.2345138512529428  0.8623205634433626
  0.7329523180415861  0.3643514092881188  0.6080544344128562
  0.8568660110801796  0.3638887251609682  0.9877428040995727
  0.4868986165877424  0.3650981970717744  0.3602721908748638
  0.2301643419363525  0.9904245928807034  0.9914854736379042
  0.4819358416134036  0.7375966504669471  0.9901328996781035
  0.6055085158874393  0.4864019982886185  0.8596087770244223
  0.2316456499988997  0.6156318054250980  0.8620814852581629
  0.9821022652130414  0.6075915626691315  0.3619676226746382
  0.8561460181003111  0.4899571162407705  0.1098819416503071
  0.1080402889059608  0.6099366796333711  0.4838970557351048
  0.2109234998161658  0.9615771207745015  0.7287029888047489
  0.4814875197684957  0.1121229943205515  0.1171288986151615
  0.6085600653795158  0.6143699044585832  0.2346201286577238
  0.3574387363196529  0.4885291725735947  0.3622257842748834
  0.4809043781534991  0.9824892498605146  0.2375229046239059
  0.1060428133372290  0.2353990934483657  0.1120803574281648
  0.9850204191688071  0.9887592576833351  0.9873757305881335
  0.6077982693932291  0.1106476623733647  0.4829828865720024
  0.1058820198184656  0.9845909331983701  0.1138929395791652
  0.4815117564051479  0.8592331081942546  0.1098858175946027
  0.6037231502395564  0.3647899161606352  0.7339348938014361
  0.2318550937587165  0.9822221748239268  0.2377034776043040
  0.6050387164279954  0.6091169207139110  0.9865776877861129
  0.2282928488258941  0.3631606174377824  0.3617816298240071
  0.2332952552489867  0.1101490850799970  0.1193590039923520
  0.3583011331360133  0.9818793090156948  0.1154772296855915
  0.1065709607864798  0.8622109341532307  0.9830428734758496
  0.8635887148879470  0.8639970958899529  0.9864996158474445
  0.7313574426311509  0.4856816100804048  0.7355559382576393
  0.7295469496945250  0.2389437421200200  0.7421504449833941
  0.7361253684007426  0.9831031653560731  0.7349472231579441
  0.0982766868588544  0.8459302243523064  0.7365452627629243
  0.4809705883200385  0.6148792994421080  0.8629542843491376
