 C Cr Fe Mo Nb Ni Ti 
 1.0000000000000000
    14.4762002749200285    0.0000000000000000    0.0000000000000000
     0.0000000000000000   14.4762002749200285    0.0000000000000000
     0.0000000000000000    0.0000000000000000   14.4762002749200285
 C   Cr  Fe  Mo  Nb  Ni  Ti 
   6  56  13  24   8 144   8
Direct
  0.2423121868208964  0.2806115649014878  0.7323577752794337
  0.2365812027961044  0.1234619821462369  0.5629092819005149
  0.4005426278300562  0.1167036403911958  0.7385302047530972
  0.3606491633483677  0.9855125965598101  0.4852124581222922
  0.6065145830858182  0.2359202018570099  0.9880221404913697
  0.2498978433360012  0.1358833285017012  0.8944727522371093
  0.4883576677472856  0.3626786773354256  0.3595569161893961
  0.2339732454177357  0.6127570203854085  0.6089862946993646
  0.6089717245240400  0.6093170319309860  0.9877614143864190
  0.1085290579881029  0.4889394605088140  0.1094151158591991
  0.4918020723369569  0.9892551426157639  0.4916216000356506
  0.7341144260752014  0.2399489261666453  0.4857984631355735
  0.6085612060838080  0.9932280523343621  0.8629802456003662
  0.9730270448338043  0.9816248405586890  0.7397991100865531
  0.1045216855385159  0.8544084878436562  0.2339759075795552
  0.8540249654410933  0.8630765632105147  0.2327780711769033
  0.4863830786007950  0.6123403059673909  0.6079065099675469
  0.3619216138736094  0.2401489836102748  0.1119578633503377
  0.2325208463990437  0.6174824701116712  0.8582246770133155
  0.6096751970338685  0.2389793229785065  0.1227270804164108
  0.2477119790219891  0.1283150056479589  0.7447824978584631
  0.4738217517412805  0.2327390885649624  0.9822259123427377
  0.8540152001585832  0.3679135145781700  0.4881902461772329
  0.7295198454245382  0.2423421005480320  0.2324930025843163
  0.8560771504707687  0.6112994540798863  0.9891182319014648
  0.4959182427022325  0.1130975360603325  0.6134078845553065
  0.4828589665065086  0.2438798527145379  0.2318486487633966
  0.3632021257477269  0.7360146471612434  0.3619463769665318
  0.2382521829814225  0.3674269112369676  0.3640682707317622
  0.2319881204878534  0.3716192322443473  0.6090478865801360
  0.4864402413319404  0.1083932325650757  0.8575000975063393
  0.9832465195056985  0.7362882546559812  0.2323642772946904
  0.3574003982343338  0.1190976250772650  0.4784743152122465
  0.7358957833612914  0.7301456068059938  0.4868140894477248
  0.3559616924037319  0.7362643152192316  0.6105497289920211
  0.4839600854003533  0.8619995509943276  0.6098743135368602
  0.7351155671430040  0.4850751636025514  0.4859878415175233
  0.6063816697377739  0.3664540861625716  0.2355149771450015
  0.4827878624231038  0.4858909281380726  0.2381302989360556
  0.4877174782550937  0.9938051920577227  0.7330407312007166
  0.3600465491264359  0.9824622228636541  0.3508707186930672
  0.3531377474910826  0.3628977866151619  0.4904629896424599
  0.6093146723459646  0.9867960301312968  0.1113195818676454
  0.0995509293560651  0.6062761652295431  0.2309154786516804
  0.2279342340324521  0.9888197857850543  0.4875058460733014
  0.9835731807606244  0.4804385438491026  0.4862264536959369
  0.9860261460169961  0.6110071771719174  0.1093659839504336
  0.7396263678318399  0.2415322608851503  0.9890405439342310
  0.6090469123171646  0.6084657026203066  0.4879399858416577
  0.4924001227549125  0.2339165324928364  0.7341148238274219
  0.6117072440690440  0.6030711913293395  0.2364968392353490
  0.3465393024025398  0.2227019145706407  0.8347169554357216
  0.3575541159872889  0.3715431414464007  0.7311891023778583
  0.6036767570283571  0.3688299148298600  0.9854624938653622
  0.4841895450187385  0.3606821596683507  0.6143382924038471
  0.3647469577473293  0.8547409022146334  0.2447828847174245
  0.7316778792710340  0.4826733613931355  0.2317458643629785
  0.3582470752248085  0.4881221162068913  0.1108909413755742
  0.6069879178560320  0.1034552999951485  0.9865390176991454
  0.3585755006430525  0.8529674437213988  0.4879932083873009
  0.6097153992956195  0.1221132628243446  0.4920725346373818
  0.2291517534153412  0.2447664694753441  0.4795604134491657
  0.7353360175000764  0.3615975761924268  0.1131052023537587
  0.2351710855074645  0.4875976778681819  0.4867158393337094
  0.8592899763124879  0.9858083902443530  0.1147992453453925
  0.4843576789033702  0.9857750897937702  0.2366444956719203
  0.1091944119068314  0.6135015039157463  0.7338436978835754
  0.2438664423961640  0.2404620307655107  0.9879688814335974
  0.8565493396320235  0.6062921969467245  0.4862171138412705
  0.7361944057154793  0.8639018486982636  0.1127704506173067
  0.6111739678563652  0.2407671397723027  0.6098537227667674
  0.9828855856892561  0.4867382832491270  0.2370996160531907
  0.7351166507782287  0.9873196181735471  0.2358193357259473
  0.1156712374008483  0.3680951224781733  0.4860074261334084
  0.7338015031221494  0.6096988022807019  0.1101951759396561
  0.1071093790707298  0.1131743067628774  0.2320922370864481
  0.8570924700568069  0.1104995338137593  0.9871595017413396
  0.9853989861722570  0.3609706266226887  0.1079358162094837
  0.1142652849382859  0.3655024522042429  0.2372689798378312
  0.3571514647575651  0.7359954761446147  0.1129003238162645
  0.2320563953042583  0.6101400020402594  0.3608669634606076
  0.2353011710711130  0.1107517719062731  0.3554804563032519
  0.7344584815206192  0.2387375157644607  0.7348318648634755
  0.4876985011585438  0.1141473848752246  0.3581816487244581
  0.9877048239256314  0.3640094213654779  0.6180887902227685
  0.6117171180903805  0.7334423423516294  0.1080041321682901
  0.8572865255892198  0.1098520572137884  0.2349647570484110
  0.9833537281605854  0.6117096632635187  0.8623936641278900
  0.7348113944314348  0.4835816510580865  0.9871124940143891
  0.6130471416561948  0.7319095513100831  0.3636423328708431
  0.2277311179269307  0.8591297491703713  0.3607547193575374
  0.4776214766753599  0.3616331880476514  0.8548037388306663
  0.3361066563646307  0.0147914855698816  0.8450358517715176
  0.9831814541471867  0.9845602123260343  0.4855555590845466
  0.8605024284218348  0.6089521295254893  0.2336664249739404
  0.6082131015671894  0.8660430609068333  0.2342994379320411
  0.2360148699918238  0.4878738623959609  0.9834685124603836
  0.9809684770211430  0.7305171793215683  0.4843847978547504
  0.1374118537925055  0.2222195115441451  0.6286972810263221
  0.4778704820704069  0.8623805316341806  0.8604788399171217
  0.7336109591437923  0.9848009527565162  0.4826261150663838
  0.3394000134393755  0.0093348619552646  0.6325524687117419
  0.3458356437390777  0.2209944390665779  0.6281865636267963
  0.1171643682333758  0.1037243403925577  0.9853910312299591
  0.9891516189161840  0.2383301858789797  0.4831254873532681
  0.7309510771935877  0.7348675931274814  0.7386601992565582
  0.1340195659293322  0.2276203919582927  0.8406444270329190
  0.2343567772511324  0.7353590000088631  0.7349576054057066
  0.0885088037043622  0.0912081451176242  0.7340386762569459
  0.2297443052182507  0.8564206835152895  0.6057546218937373
  0.4858379503087911  0.8607892952649897  0.3650057699839175
  0.4801444308971632  0.9881549057115964  0.9864652700855663
  0.1139260557200625  0.3590859111993026  0.9810199658640124
  0.3579667086809000  0.6134089192427616  0.7316332129646461
  0.3548149985467878  0.8588591066182262  0.9875175300852375
  0.4825120655758468  0.7336040704504284  0.4862631361619459
  0.9809554946176003  0.6083378494363646  0.6092127530546171
  0.4815883788611338  0.3655406046495868  0.1096755698625853
  0.4845449950282021  0.7312476607938331  0.2369901199543351
  0.2295576493529292  0.7331216088952078  0.2348204909846051
  0.1062249968672567  0.7298479318830549  0.6074952806304120
  0.3596046042781326  0.6101003492342796  0.2365409099399350
  0.3603852215586409  0.3631326355454910  0.9851270204802854
  0.4847465239260741  0.6079752479509647  0.3613601827757604
  0.6113658355827568  0.9848326808977880  0.6134061317296619
  0.8565386298815187  0.7364604104891413  0.1093616493853061
  0.2319822150695466  0.8578314114525826  0.1154818859129010
  0.7372114870201103  0.6057859091845345  0.3610380446009596
  0.3597769385448197  0.3658185730399053  0.2365323216150846
  0.1074978417278894  0.7339089067224305  0.1111868371598702
  0.6112779301112629  0.2352677660222609  0.8568015563166639
  0.3611795589786353  0.1151668603752140  0.2341190815688297
  0.3606260188670893  0.2438836237386662  0.3595486494398273
  0.9792032250063285  0.8575256651982430  0.8594154666827286
  0.7328991066463708  0.9864564199739468  0.9895840613661552
  0.9864901308414172  0.4877211092853460  0.9865100186825421
  0.3580028318446629  0.6133997753329735  0.9870737248383461
  0.8583478707264171  0.2378118086702156  0.1115688574028835
  0.3562627078411831  0.1136053779309404  0.9872757414773535
  0.4827796176804832  0.4893632591538001  0.7299253944313148
  0.1045238659484009  0.8580888590093158  0.4876597962351817
  0.8591972630364634  0.8574013475389572  0.7346000218171324
  0.7342381726189359  0.3601165579623939  0.8603886191900986
  0.2381657301755153  0.2399161722346772  0.2329053807556873
  0.6109501479722238  0.4866730785217330  0.3632097164498576
  0.9821321508393629  0.9831043774291046  0.9877671758806242
  0.6114621151048515  0.1112404306057511  0.2344766415662907
  0.4844328735473703  0.1118978026163948  0.1137592617484630
  0.2367866055738798  0.3627583833692490  0.1097784306747102
  0.2363587329721195  0.4892503089018310  0.2336192848218972
  0.6120294615062931  0.2414478488575925  0.3614652039133328
  0.2358561970416419  0.1122715349055542  0.1148527873905231
  0.1068825974111791  0.9810865897622115  0.1134922306432999
  0.1033774369055801  0.7317517098195618  0.3599060728498939
  0.6089666215293734  0.3628721742018536  0.7352336676091377
  0.1070129415183886  0.6083847097007915  0.4858632766462121
  0.4836390837587352  0.6084721076094178  0.1119241530530595
  0.4825288573182164  0.8613133220942174  0.1081135166801852
  0.6059504147229582  0.4879391917350971  0.8586520562730705
  0.2105352253941219  0.9659838770919024  0.7375577048247977
  0.2355299711169021  0.9805657115646833  0.9891192364131892
  0.1165083413254090  0.3711357857571341  0.7373224898405925
  0.1071055040639562  0.7331110336350695  0.8621597080517733
  0.2312206207450875  0.7318490523143663  0.4864888980730965
  0.6079898179683548  0.4857551243144521  0.6097537381970362
  0.7332704578462770  0.3634906255112674  0.3604494189785460
  0.4812050787790907  0.7359272225045906  0.9882682314846264
  0.3538341593125175  0.7348839371000330  0.8587895288951686
  0.7341168954475521  0.7357322187823822  0.9849977488242116
  0.7298563530044021  0.8646023117635555  0.8636176193462932
  0.1015589978338196  0.9807531854174322  0.6094587046539121
  0.9776657138501956  0.8584192120919590  0.6098474130539847
  0.1008751240801970  0.9788348077210155  0.8606006407128279
  0.8572923945805057  0.3628340159280711  0.2354979681902889
  0.8594647683698358  0.2362932200583213  0.8606975411853207
  0.9845595663873700  0.9828805590433511  0.2327243874027436
  0.8594527764512990  0.3605163277429734  0.9846012153949338
  0.2302701639075042  0.9815722589251573  0.2324193504734156
  0.9851525119379921  0.2351596451741041  0.7367410131054445
  0.8589339922531265  0.4836596957913565  0.3614561527961949
  0.1116036545663785  0.4894324627757078  0.8596869869323669
  0.7374949472649681  0.1140223889711048  0.6104138664501559
  0.7333142839019413  0.6096885372683523  0.6069182549421466
  0.6074163508361869  0.7356827865085779  0.6079145497111608
  0.4814144667974544  0.7366979109353062  0.7301784237885153
  0.4820925676928676  0.2411538446949866  0.4886276832810854
  0.8572571762273231  0.1136705577438334  0.4847302573728146
  0.6102118011379659  0.9869487269998684  0.3609556728500529
  0.7321426710187330  0.1103863337165072  0.1118261087198393
  0.8588867407517923  0.6078390372943800  0.7355887261173376
  0.8556699955950167  0.2402663188275960  0.3596950821071548
  0.1103603152037095  0.4920173619526699  0.6103475849891915
  0.6080015093246621  0.7356082233629377  0.8648627137730573
  0.6062404727917368  0.8623487507015614  0.7328876749875276
  0.1062228536924939  0.4867525983212650  0.3621660245822204
  0.7371047303171355  0.7346890292342999  0.2343705505503675
  0.9832905886469023  0.1110542906070035  0.1097957975950093
  0.9815730680828196  0.1083245589140303  0.8617251395396591
  0.8598293587010366  0.1130279374021726  0.7346151623129709
  0.8576377670143198  0.7345866708540757  0.3610667285944563
  0.7321389403467726  0.1156544055258300  0.3596596229905862
  0.7340475986639684  0.3629837620477517  0.6097576397969995
  0.8578164033873236  0.4884743600214405  0.6116107372070826
  0.2327950525017981  0.7343574998703928  0.9859828126068880
  0.7359182879097165  0.1100204371198923  0.8619069217311705
  0.8581480437917320  0.9849095946300612  0.8620090949960443
  0.8580210009593224  0.3624427675224712  0.7349706767111014
  0.1095498961401193  0.6122709768148588  0.9857666096221493
  0.9808022737023012  0.8590085966242962  0.3581358251499048
  0.7390650551772315  0.8591115616742352  0.3588483661867121
  0.8596659509827261  0.9852457675012495  0.6100039926920739
  0.2320957044891971  0.6111040329852041  0.1132667921255415
  0.9836204004334982  0.1090768197916027  0.3586719751855353
  0.6093193938705018  0.8584089973485052  0.4885138978658362
  0.3541339539124687  0.8595068219760182  0.7319745283869767
  0.8594443963924271  0.8569789042962944  0.4861412246781743
  0.8612617987445379  0.9850927560265310  0.3582814121715089
  0.9814786789698198  0.8607904334235421  0.1122515576780401
  0.1036679295289000  0.9848661209400745  0.3595317520433144
  0.8612016427821979  0.4834512630279558  0.1094041769215826
  0.3597522594115630  0.4909149892864977  0.6091471871153704
  0.8570496991744567  0.2369703191386988  0.6107865654328816
  0.9798171255297179  0.1096246624488956  0.6086649100226654
  0.6045557439701054  0.6120403836721112  0.7328890117585414
  0.2423971812253757  0.3651138875800873  0.8568739235143651
  0.6094500473650285  0.3628153597197140  0.4872131791216447
  0.6096805169767043  0.8651640946315837  0.9879772859030367
  0.9838301166978763  0.2368862208265048  0.2349894096187829
  0.1133028867845215  0.2377795846194829  0.1073273039626865
  0.8597074345634060  0.4863290606706496  0.8606391542617308
  0.9817878768734680  0.3643362547113042  0.3585144531139964
  0.4823299284709490  0.4855797944980113  0.4866740609258647
  0.6058066876366535  0.4856227915519136  0.1114018489266147
  0.9870265650687509  0.4893469863578180  0.7370498804968741
  0.3604108493217972  0.4858663672056696  0.3636210227172625
  0.9818424373719221  0.6080275343753697  0.3605601671276631
  0.9834151795752617  0.7339475029542855  0.9886661403412287
  0.9884532368643414  0.2340727066187595  0.9832559240961841
  0.3584327007716644  0.4924289577468093  0.8573651481459731
  0.7362910465439496  0.8568983151346329  0.6081613587358684
  0.4809110340346541  0.4897579766565083  0.9866846160672160
  0.2352593578173016  0.8599427079072964  0.8639784016383488
  0.6161602360038537  0.1117735812457173  0.7343205038883605
  0.9802450796321553  0.7308340864097117  0.7349497327814476
  0.2344512974964946  0.4968586250464349  0.7353760412346874
  0.1098250212704143  0.2398777630701864  0.3568427638090625
  0.8594740598356563  0.7340267094498399  0.8621597068895186
  0.3601509442170757  0.6115804236325912  0.4873438038771921
  0.1122950419565069  0.1081170085204030  0.4888371908579211
  0.7330870272038097  0.6111955152110965  0.8649610724541777
  0.8586884240869607  0.7315566934180150  0.6104421569780575
  0.9823558568894142  0.3640394529337603  0.8599377490311493
  0.7397054753871921  0.9821286184497091  0.7342900660827495
  0.1022374144404341  0.8452563533313456  0.7333277090084576
  0.3585862800367329  0.9854994352989774  0.1137068395251397
  0.1083564311808941  0.8587321245670764  0.9838701978923646
  0.8585079239192599  0.8591497697797618  0.9840287941918100
  0.7323676125830780  0.4897260584434309  0.7376722669574142
  0.4798050090996905  0.6150148453161979  0.8576073270373208
