 C Cr Fe Mo Nb Ni Ti 
 1.0000000000000000
    14.4762002749200285    0.0000000000000000    0.0000000000000000
     0.0000000000000000   14.4762002749200285    0.0000000000000000
     0.0000000000000000    0.0000000000000000   14.4762002749200285
 C   Cr  Fe  Mo  Nb  Ni  Ti 
   6  56  13  24   8 144   8
Direct
  0.2148262051086420  0.2902231767253403  0.7290575963237003
  0.3308888282490132  0.2272811669243240  0.4886613079952662
  0.3913374922421362  0.1054283620559892  0.7230921179385748
  0.4719335589093476  0.2310681959157102  0.3638996371648295
  0.4325365266430922  0.2398500942467520  0.8744684509608377
  0.2220790938863721  0.1483332225567096  0.8882450670422826
  0.4707478409208913  0.2335724708916171  0.2296979434180574
  0.9679763112471494  0.7305747506996932  0.2349689976038681
  0.2228840966958285  0.1059436997387072  0.1239809021041134
  0.7232473982189345  0.4811296647315745  0.4840041392435266
  0.3512717879847591  0.0057225711018483  0.6146338921035488
  0.2205758374051579  0.7347394396654113  0.4814111344183774
  0.2162365290430238  0.6144894543616006  0.6034578331267104
  0.8497044737132265  0.4833356229998659  0.3609450884692002
  0.4672939306521194  0.0985454492795386  0.3579233680661830
  0.4870395673608442  0.2363811987539622  0.9976694922887301
  0.2148028001942486  0.7299812556386965  0.2356346900068396
  0.5945600980025600  0.3600416704027879  0.9844430875013165
  0.4674346644616181  0.3629771629264238  0.6103256130945633
  0.3389090360797898  0.2328397886083794  0.3555984947760559
  0.1999641834063332  0.2411933494427481  0.4812658860338386
  0.3409653447623282  0.8564890253794744  0.4833185429363297
  0.3386772460261924  0.3711186985207844  0.7266152913239479
  0.2197896357534825  0.3722778925357265  0.8488345072354559
  0.9693773006103192  0.4900587950386114  0.7319904291245922
  0.8472968438328512  0.7298640706934633  0.3604417534351565
  0.7181557969838329  0.2325909785452417  0.4816502196077703
  0.8503613720578176  0.3683393629427328  0.4830019495288471
  0.2175242982225004  0.8496661540669993  0.3608003127320448
  0.5991980872580251  0.2341602516218351  0.6053876269915691
  0.4638147020017732  0.2317747604716952  0.4996574112151586
  0.7305424800662366  0.4833659995789346  0.2336561219564940
  0.7278089099786497  0.9743693486998080  0.2377594677991723
  0.2267985948248793  0.8561758606999336  0.8490061876828786
  0.4662512301846454  0.7267894691212277  0.4815413881941778
  0.9731226924694160  0.7319400507472841  0.4804837198743794
  0.8471683557874738  0.6034396827630143  0.2347027843827665
  0.0926863241450815  0.8494598611211067  0.2353724102963851
  0.7306624821028072  0.7331131098371161  0.2376910622106508
  0.9737300668928998  0.2313045861058176  0.2309059269071970
  0.3386161826835964  0.0945009003422179  0.4774300296184863
  0.6041031303756733  0.2349775377719135  0.3666307815148404
  0.3446830151225831  0.8554984156522057  0.7430057631257637
  0.4788956245682989  0.1019638710894380  0.6097723183467010
  0.9698693170622820  0.9780714160815192  0.2320762650765261
  0.0943380040861208  0.6081469683085776  0.9852720688612296
  0.3482373668310463  0.1084309022990956  0.2349840499728380
  0.4562953040863276  0.1083338292639555  0.8467037870850391
  0.7216799074371927  0.7327063121826153  0.4793447724339467
  0.2135229748643984  0.3735566883098363  0.6106127819009319
  0.2186506324298340  0.2410333090263115  0.9894364955408845
  0.8484625050028523  0.8555614435792004  0.2344402744887634
  0.3075520756318645  0.2262408820652838  0.8203206433987797
  0.9716155645862661  0.4821035184660125  0.2342795443387401
  0.5962478831039297  0.4820447026153878  0.3683139781946242
  0.5980040384258428  0.6065861652841094  0.4821709051100749
  0.4674612946306568  0.2329776625215952  0.7290015090553771
  0.0919408304178767  0.3746765932764993  0.7309467962456297
  0.5987446997067961  0.3632247879953664  0.4865068738368028
  0.3380743624936317  0.3615284764925130  0.4969287522358070
  0.9773483719984414  0.3661787888421689  0.6105078377892111
  0.4698158248822522  0.3636880540931965  0.3647201446603008
  0.0932427941781686  0.4857955892405255  0.3590235366464082
  0.7213920397721210  0.8516992025281771  0.3551472747499796
  0.8480026404528269  0.1011669841395276  0.9853256400612014
  0.8497385696719273  0.6052355251421598  0.7318500237175561
  0.5990891812694404  0.8536202310778749  0.2364398672837114
  0.9726581645867176  0.4837116748516584  0.9830643780049640
  0.9706160035775486  0.8529768679447702  0.3589337991250110
  0.9727956323529535  0.4848869608400872  0.4818189384095924
  0.0917212284844815  0.8533704734423256  0.4802426255958968
  0.0921681691927175  0.3656798625485417  0.4832561437918303
  0.4688449081836932  0.9795648091972626  0.2354176851301214
  0.4784670341786537  0.3650125971707645  0.8522632399672858
  0.8508944119223124  0.9765926193832515  0.3535567042046294
  0.7190026083042861  0.4777562820565363  0.9830347487519577
  0.1146877043449391  0.2281583418522629  0.8316803297056984
  0.3414734182838637  0.9769402040565178  0.1156491631117054
  0.5919983159401241  0.2297494778594536  0.8546648553769314
  0.8469625478980100  0.2339663595359285  0.3625228976362621
  0.9664903485014322  0.9750912904120527  0.7353187333953483
  0.5973537867332759  0.9750185260345409  0.1142131543273427
  0.5978275648573491  0.6007463715603057  0.2418830907861487
  0.3432451428034580  0.4827455408301556  0.1089789544555449
  0.8503019530218497  0.6066886254202192  0.9835728726029572
  0.2176789872007826  0.6118258448962626  0.8618581731106969
  0.2284982850000998  0.8752697910458469  0.6192468656058443
  0.3409935650574183  0.4810860222546521  0.3617466391860349
  0.1098145623661508  0.2319287100323482  0.6265844578375397
  0.5982727919901228  0.1078711338923093  0.2377307661391943
  0.4637482680543234  0.8570294483163203  0.6054705737746106
  0.8510005423282941  0.2306180250233937  0.1053047435263967
  0.3504747909737790  0.3433202356617588  0.9642908735162232
  0.4717440179201711  0.6130060648119567  0.6082758683362830
  0.4703179516577111  0.8545068845749325  0.3583973452946810
  0.5996434170153511  0.3629726049543688  0.2357214012306662
  0.3443082815105178  0.7276219079471800  0.1108837889775253
  0.6011779977669292  0.7297357231430496  0.1140929360790897
  0.0978756166934215  0.3574050700681665  0.9795653691809045
  0.3133199885425559  0.2086854904546584  0.6345952069523579
  0.7208627752843686  0.7296644611796020  0.7352701168589775
  0.1059691765610508  0.0976486744398451  0.9775310104803594
  0.8470675042753290  0.2326589502257263  0.8594806872666377
  0.2502251498563402  0.0449227901679509  0.7819615537410717
  0.7221897548627642  0.9820209319575713  0.4820724785279679
  0.5910731248431139  0.9798416635593653  0.8686060538135121
  0.0864737907827849  0.0986307905631894  0.4772424432588199
  0.8464726324975917  0.8514624269654043  0.4810673958200992
  0.8487060250566096  0.7290548138461943  0.1122210122796249
  0.7224080645911175  0.8567672421616386  0.8618573446362272
  0.3418644876880076  0.7280405156171516  0.3594790106927334
  0.2028272898620961  0.0781535841414338  0.6059781691623797
  0.5967964499703624  0.4852939490959010  0.6078722024008293
  0.8444789858984593  0.1044569658074096  0.7327918847770075
  0.3411067430190256  0.9789178505531834  0.3553243237250937
  0.2203522634933410  0.7330217553770960  0.9850796452087459
  0.4762498034420427  0.8472044721326635  0.8633246379483487
  0.8454129664961268  0.9799648656224909  0.8598717275869627
  0.7213696444416691  0.1038423278768332  0.8622302962887106
  0.5950970936174039  0.8526135382825918  0.4833852289794898
  0.9688345383808405  0.6096565197495040  0.6045002176768132
  0.2158491338800692  0.4874880790817867  0.4846372617990182
  0.3421405475678211  0.4913456709260022  0.6081938790420116
  0.9723523510452255  0.6083355330622637  0.8594371354218509
  0.0920955933976342  0.9734104352795971  0.3536247907532716
  0.7219124055570528  0.1088353631417645  0.6072762677536494
  0.5969520288952508  0.7330812670138788  0.6048495343721888
  0.7266018516692653  0.6046410741665962  0.1108865772342474
  0.4704846638823117  0.7336568360073138  0.7348487718806175
  0.9665322440706530  0.1049714477191487  0.3521069600595294
  0.8516521286572843  0.1061955279975528  0.4819378944069858
  0.3434973422399333  0.3588621309166681  0.2350029104687592
  0.7261608126690040  0.8541438018535582  0.1113388515481982
  0.0928602412818626  0.6072140877887815  0.2359101263261224
  0.7224678573149912  0.7289588601574839  0.9851390175383363
  0.8454237613773957  0.7295519640773845  0.6028194248369448
  0.4709804411618798  0.7295364114910668  0.9877180193448319
  0.5934664918524089  0.8569333928057424  0.7322274773173360
  0.0936074804673791  0.3605680090658036  0.2322703655838644
  0.3448545984187313  0.6119508085451167  0.7334765942009716
  0.8454317031770031  0.8539036758716131  0.7318957768332016
  0.5968584290164266  0.4834966674565109  0.1085337861063655
  0.2158145009010051  0.6068388599613771  0.1091537004007747
  0.7245323677182259  0.3614329760977824  0.3593279875742287
  0.9649785733606425  0.9748912313593072  0.4771761964480041
  0.9775992843510318  0.2294034287066861  0.9805419619620429
  0.6026599487927828  0.2348609504264783  0.1141778710261120
  0.7233610611568605  0.8527151790070339  0.6052929767091418
  0.0957502231413459  0.8546942329603668  0.7329686834084342
  0.3402957031120045  0.7319132304887649  0.6110293285564615
  0.7262604330791188  0.3580504390613525  0.1088284956879783
  0.4684856900516034  0.4844739470027838  0.4880101834272836
  0.4709683349625458  0.3606325137011621  0.1103179316508923
  0.2172639267773652  0.1053509095335742  0.3511956009897640
  0.8488800865573688  0.7295219643223311  0.8594566763847344
  0.6005264491697343  0.1030717014177872  0.7310160723236165
  0.2195333381905301  0.4968724702899793  0.7309955831944067
  0.9710896744577967  0.6073280202588495  0.3593678335038410
  0.9695617319447656  0.9797950315856935  0.9854398894597747
  0.8455646138710097  0.1047643461777317  0.2331689448987995
  0.7259945602058102  0.1055454617898414  0.3575326154433923
  0.4679205628998062  0.4827396971042617  0.2353564872272220
  0.8487897621162475  0.3611462390498749  0.7296154849006232
  0.9738895088707604  0.3596500686850923  0.3574951070899116
  0.0943429271545033  0.6117307603249423  0.7299571648812196
  0.5957469055223410  0.1067024210239020  0.4833835051413713
  0.0811055272992750  0.9691219610097865  0.6040552005731883
  0.5951114347015383  0.6076636927556965  0.7314752629371285
  0.9730324502405208  0.7296668956895395  0.9854314463551500
  0.5983348147670989  0.7302031220934826  0.8610227664723321
  0.9728698137808569  0.1031959061663478  0.1086980917532001
  0.7233214393185609  0.9819176002620116  0.9886372011481078
  0.5993814549139684  0.7297594429924781  0.3613392192953097
  0.9707322749967270  0.8544462676079800  0.1122111982156900
  0.7219979846089839  0.6062655948754515  0.8612131267490004
  0.7193024642457123  0.2327090931038990  0.7312625008199014
  0.0930026037729121  0.4903028875061002  0.8570787591857155
  0.8500987744158192  0.4829258172480408  0.8574653196643619
  0.0943732100678635  0.4842719622480227  0.1075613272687400
  0.3408523792571895  0.6098622754041477  0.4838625505659691
  0.4671914293801175  0.9806400647949781  0.7375161583165364
  0.4709986403353910  0.6035795866884637  0.1088989928651175
  0.2156692401040859  0.6096677646483455  0.3583163154280626
  0.7237198922990069  0.6070193353293617  0.6024242134802912
  0.2190668184633375  0.2346333409982694  0.2336769622465242
  0.7179054029351488  0.2326459268289926  0.9854595080348758
  0.0924873665325413  0.2343515224350548  0.3530044057642235
  0.5949102542923809  0.9776202522364982  0.6080567106343630
  0.0926751093213903  0.1045971832200178  0.2341943941974883
  0.7260013957990149  0.2340071380552569  0.2348948227617015
  0.4693065034219123  0.1085612945031742  0.1105650129961715
  0.3455369270780449  0.2343961055164688  0.1110370545767653
  0.7209336671857680  0.3575275162434907  0.8569136891174061
  0.3446603186567478  0.7306979821373388  0.8602979215396703
  0.2191456414681852  0.7318225455179299  0.7322403672032054
  0.2144207406812567  0.3609070914040060  0.3563754738068554
  0.2177014514701023  0.9752283833298068  0.4731999249011277
  0.4711882604802643  0.4810455295770423  0.9838895316239402
  0.9722132200709099  0.1016634934019247  0.8563689546617717
  0.0917707076160903  0.7291842445622789  0.3595264710389544
  0.9770095931133120  0.2393605062373673  0.4855473352248914
  0.9695279900471114  0.2307309769918403  0.7318619241929616
  0.2181334831034466  0.8519614606998803  0.1136570603377478
  0.3427475942490710  0.8508813796666936  0.2378500729628805
  0.9656343487529317  0.8507216825794784  0.6047001340131104
  0.8486403633037488  0.9807613890500486  0.1117731759896980
  0.2169570864917179  0.4844044809263180  0.2334677533756482
  0.4708856632243901  0.8515773467383173  0.1154067944716618
  0.4700869799268013  0.9787101625428106  0.9946903710467953
  0.9720382907013800  0.6056518101146232  0.1115582323846256
  0.8500932600466576  0.3586448788765834  0.2351647200499717
  0.2210423009114986  0.4838666584555587  0.9823420292240307
  0.3476172949044136  0.8482026783535080  0.9891982108798172
  0.4680856300140800  0.6061732459815407  0.3617498478909972
  0.9670978378318612  0.8540684720061598  0.8593642179095122
  0.8489370498941466  0.4866632357272715  0.6064920429642768
  0.0860253346502319  0.0899501797882097  0.7277111672704695
  0.8500949822831826  0.3606027963454528  0.9833071469461012
  0.3612898035448273  0.9631868409516323  0.8743185692258690
  0.7248920014787941  0.3586993462159501  0.6062713975094380
  0.5966838981631177  0.3582601398779068  0.7283453771132360
  0.3446578678421808  0.6061774426358177  0.9849882548870191
  0.0980361908850611  0.7356414705681572  0.6054382965124744
  0.8507404569536119  0.4811249896756567  0.1101408251634935
  0.7259651753483407  0.6059649307928638  0.3616540197324217
  0.5967642734923364  0.4834537650261487  0.8553659389373338
  0.8492779784756128  0.9772554264455096  0.6061697802843776
  0.0929499624650949  0.7289073953634533  0.1112376551715186
  0.4705583974656268  0.9822631994278200  0.4816446775474490
  0.9732342920431672  0.3612963307335745  0.8539308033642636
  0.7250691701766495  0.1063318272746481  0.1083615716680493
  0.5980603988729952  0.6053553033563447  0.9850833526420858
  0.3466696109194268  0.4862240967169007  0.8556166364297079
  0.4696422737129694  0.7278413117883489  0.2366162798236512
  0.0940507451040688  0.6113868782930516  0.4827950942794470
  0.9721415605064722  0.3583229742965894  0.1083000742827090
  0.5961997033352129  0.1071576856766244  0.9900897334381055
  0.2199871759911912  0.3591962551564875  0.1114327043396759
  0.5977074019874126  0.8504938331683747  0.9876810290774353
  0.0941675937241552  0.9690873893379509  0.8554967862828142
  0.2163180045277007  0.9744526133325930  0.2380460763412136
  0.5966875953744341  0.9781140276797616  0.3584503669887993
  0.0950397419496464  0.2312695900206598  0.1106800689139825
  0.3430598923877645  0.6067815679699988  0.2350096602158472
  0.2255099355766058  0.9694919843897020  0.9809566736644026
  0.0955060857128590  0.7343268554766362  0.8588941640558887
  0.0973380426994178  0.9780103292962290  0.1136815346768138
  0.0930729403779278  0.4926213055576837  0.6067876924066109
  0.4700847631017727  0.4846180192500131  0.7313912103170714
  0.9668743646706320  0.1041899254337404  0.6088694140879867
  0.8473565449416380  0.6069503348149572  0.4824006990072734
  0.8476745259685177  0.2298080148725853  0.6087585307858243
  0.7275654049684459  0.9783573574969664  0.7263180050263285
  0.9705683685685591  0.7319759724185696  0.7319089608641305
  0.3403059954163751  0.1167302441445567  0.9742157999771148
  0.0931107397847731  0.8551356761926840  0.9873921439208410
  0.8461996041539618  0.8548058348262343  0.9851442862930360
  0.7232907907377160  0.4854953548242776  0.7329384610831083
  0.4738399692593767  0.6083290789841793  0.8606424057763848
