 C Cr Fe Mo Nb Ni Ti 
 1.0000000000000000
    14.4762002749200285    0.0000000000000000    0.0000000000000000
     0.0000000000000000   14.4762002749200285    0.0000000000000000
     0.0000000000000000    0.0000000000000000   14.4762002749200285
 C   Cr  Fe  Mo  Nb  Ni  Ti 
   6  56  13  24   8 144   8
Direct
  0.3512732863921056  0.3444235659103689  0.6195691468868384
  0.3509322016929179  0.4856889065646894  0.4861255265303751
  0.3967781483644249  0.1161670239960292  0.7460184048708259
  0.3591836482796594  0.9716659606422476  0.5152873578979814
  0.4893453356932301  0.1097707204738151  0.4887613693711161
  0.2475690201865405  0.1022827884476906  0.9177209897201078
  0.3574701283283166  0.4848910853077550  0.3534596323909483
  0.1103046526173367  0.4877205077726892  0.6151525171934108
  0.7372187627491973  0.7346461904787741  0.4890492873088706
  0.8599619311551210  0.8550408408055360  0.2351759594525265
  0.9849996096473003  0.1101383256146127  0.8605899481590773
  0.4827648116425100  0.1063266665840006  0.3535523079823054
  0.4875397299381702  0.9808977902484847  0.4747625538158812
  0.6109680236788870  0.3679319170059621  0.2346133791310751
  0.6189162044662666  0.9903472192737204  0.8611391647570352
  0.3390579770815292  0.0213138974785291  0.8491586547744671
  0.8597288747119216  0.1076354254145512  0.9861300420979650
  0.8587097312665120  0.7396626488620783  0.3580837123839818
  0.4820498159920686  0.7360244686029850  0.2371305398738413
  0.1149622607440960  0.8553776612737792  0.4863696292827364
  0.1091164036580314  0.3578442843095903  0.4833826827729134
  0.8571568368394867  0.6104085078175198  0.9874712301531661
  0.4845243273752802  0.6029649645599502  0.1133880502874818
  0.7390699908614708  0.1062728111821560  0.1116346231960531
  0.2157598745219332  0.3531214799432659  0.6168795005325268
  0.6133535010691928  0.2380810730979482  0.1113484680854355
  0.7343423988543634  0.2410329200860489  0.2261820915492471
  0.9852784635323656  0.6145282936378276  0.6068961925017786
  0.6169244460376689  0.2289104498396653  0.8591755118227358
  0.3523759242762105  0.3631060282031689  0.2320251166168845
  0.8579328929110147  0.1093892213876800  0.2292682981130982
  0.4852081437315894  0.4828228479051939  0.4911778959872304
  0.4860913775653555  0.3571900813621842  0.6249145565749538
  0.6056099905243066  0.4916145521722008  0.3601665927640528
  0.3631815725930808  0.7261119845126754  0.3558394047305835
  0.4809015488150492  0.6033179950490739  0.3601699109966582
  0.6101500603667696  0.4884871602044655  0.1069983929864745
  0.4858533849400912  0.1089274557907410  0.6227558587864439
  0.6106720524040693  0.6019731501774224  0.2352054654128031
  0.4856393175374222  0.6071747989720365  0.6074742189742799
  0.3485942797693076  0.3534503938264932  0.4876556204984699
  0.2381743617361971  0.7295092808713101  0.7359843013413054
  0.9809703378713499  0.6141980430770028  0.1090214488690723
  0.7385395723534792  0.1028486245949180  0.8620971947206447
  0.7310455712139736  0.7334136591715731  0.9833223960817361
  0.2339828867656177  0.2271166655631613  0.9813240188783606
  0.3568837512749803  0.6177369116821638  0.4869888867152993
  0.3578012806842281  0.2099351779422931  0.6313629863790436
  0.8634223012403704  0.4847589061648348  0.3633137419006331
  0.3567016694311658  0.9817063574760534  0.3638903105174010
  0.2172057686650131  0.4841274103480332  0.4858968875839411
  0.2263996467985176  0.9797585745615476  0.4840533969203076
  0.6214996037154104  0.1159052977978410  0.4880670223417136
  0.2298142178965764  0.4830836224433733  0.7382438805146792
  0.2393150389281600  0.4833088335847707  0.2322981319344233
  0.4913570555476607  0.2247043032065878  0.7372542393089018
  0.3536202082646531  0.4805907483359136  0.6197468904521793
  0.3556040507506994  0.1077154978739749  0.4941492541107981
  0.7315013597158252  0.2359146529550978  0.7482929034796871
  0.1176303777008884  0.1106751319517290  0.9832406658199239
  0.2316472389405360  0.7296734843819060  0.4836688865694522
  0.7380243740729745  0.4893941823589549  0.4805580504501227
  0.0978210374954712  0.2389561052091654  0.6053589646498532
  0.1098956895774311  0.7326822547035740  0.1074019753556839
  0.7390051554474283  0.6130013256244338  0.1075618398952658
  0.0997201440948453  0.1200303563931432  0.7238446531490033
  0.7411417950180681  0.7328151564499543  0.2330346513632322
  0.8598025004403386  0.6129877763850551  0.4843752500758850
  0.2451323970867597  0.8674354629396362  0.8621528829892413
  0.1109860435625611  0.3544479426289542  0.7368013914385221
  0.8619264398270490  0.2388840424377248  0.3562799793321560
  0.4858895133316731  0.4861894448851636  0.7276872218229369
  0.4857268330733794  0.9839248841532648  0.2419120973396968
  0.9817302680397295  0.7376187072667812  0.2304124286259477
  0.4848083344608822  0.3611366818645225  0.1073119925697403
  0.4844652856660407  0.2503575338032425  0.4858413512324625
  0.2360270127745297  0.1084444153512565  0.3587274353772468
  0.3624771309859124  0.7336429854499004  0.1100581219693205
  0.1103941487462108  0.6122679978078113  0.2273794638344847
  0.9828032394213452  0.6135486199584806  0.3639358940127512
  0.1119726673898981  0.3631322546018604  0.2350721587594106
  0.9847629435491503  0.3603733877669699  0.1046730023492479
  0.9850916692136925  0.1078832364877101  0.1114410886878986
  0.9797116050730512  0.1115729622322816  0.3524001755863134
  0.4855013040093698  0.2389183502868968  0.2328762762328170
  0.6088719681786466  0.7312616396969276  0.1156439696237417
  0.6092123307012739  0.9848840352443996  0.1111080077213291
  0.9858584692430490  0.6110956438215320  0.8611115107991016
  0.1093224342892226  0.8531234306064981  0.2325642540639234
  0.7374826786240006  0.2357406615936370  0.9865123402201522
  0.2335227829804463  0.6137482521477975  0.8601321742479390
  0.8675497846430340  0.4866999622835788  0.6052904641095012
  0.2356375630329299  0.4816541421899376  0.9846204519930273
  0.6096234872643232  0.7297761185372450  0.3570646175235255
  0.7394944885048585  0.1144565054359390  0.3506450299345142
  0.9872632771061083  0.9798298474098476  0.4858616966330625
  0.7415850401196576  0.4855724816118495  0.2354900152463897
  0.6207423885064993  0.3634131035432184  0.4850925794143918
  0.1465051775435816  0.0178018849557157  0.8422131215650327
  0.4738689967838879  0.8679349053808948  0.6116949934599807
  0.4818454862748052  0.8612583489514323  0.8608317128614053
  0.4896391986021540  0.3640430853626144  0.8617848420358483
  0.7369960576744915  0.9777112422734012  0.4884956763707519
  0.1159818760639724  0.8614735304014618  0.7341065216348185
  0.7303668999467544  0.7291848559455342  0.7375864900492821
  0.3117038687364499  0.0105990762681618  0.6653980746214236
  0.8617954477582328  0.2357722401150494  0.6110303102924546
  0.2380512695953721  0.7334285023799672  0.2339802868280698
  0.3535355378664240  0.8558505393659359  0.7393155571824535
  0.2381355872403491  0.8522013070972102  0.6062396210037677
  0.2138393226527866  0.1267857430816444  0.6003700559147805
  0.4835679046462024  0.7307341969939380  0.4844070960467863
  0.6097381894629567  0.1102527063746439  0.2339746583304505
  0.3559958685971476  0.8448829707607080  0.4769451446416962
  0.4829504156965213  0.4864083712124217  0.9881048501267434
  0.2377346078805736  0.6091367310374945  0.1071408885453077
  0.3597924014376523  0.8609590506056422  0.9865799739735610
  0.3579282382461240  0.7300774557268679  0.6126288145499391
  0.1102923356839080  0.7354555187670578  0.3608338513345651
  0.4824898214287845  0.3648453662141857  0.3557050390338283
  0.3595118211477065  0.6055470118781788  0.2335557517626810
  0.1103264581980726  0.3563108676327171  0.9838443156202828
  0.4848086845659146  0.9874905525687403  0.9846863289934114
  0.9855842423260099  0.8602131359814349  0.1082510218185715
  0.7373509461963371  0.3635291803324158  0.1092059882165388
  0.9857686296302629  0.7354486632805629  0.9854833897834151
  0.2363824319802824  0.8575822559582809  0.1124457652120136
  0.4847075532367000  0.8572645936799081  0.3586155424937978
  0.2321310888730166  0.3591394608199402  0.3598829077186523
  0.4899410601514878  0.1094823350708263  0.8640932007912513
  0.9871502540292331  0.4887456809314154  0.9861635599920041
  0.3607611871833030  0.6077329492110066  0.7340782332490391
  0.3561914274392605  0.2379475981440623  0.3586816215585137
  0.3567742183379117  0.4824507583939388  0.8572797504871904
  0.6163070441640948  0.2345584466706723  0.6181081634721195
  0.3608786298665294  0.1106646150480665  0.2356090292780092
  0.6104346335359501  0.9837291478375743  0.6145335266790828
  0.1151198225728264  0.9873745392450655  0.6125050048860480
  0.7375375697111826  0.9832256615594739  0.7358866076703021
  0.4931409522925921  0.2340504866033880  0.9912581193698126
  0.9843207863226234  0.2370410888533565  0.7371880979949765
  0.9897067148981699  0.8632717234231783  0.8606413495471352
  0.6133741865980857  0.4889923451674084  0.8632530731820376
  0.6091385387023656  0.1083029652634234  0.9867735186876423
  0.3610844567194478  0.8601811811726111  0.2391795122881681
  0.2338125960126183  0.3584185281722926  0.1079116437163926
  0.1048356542807835  0.2336989811631507  0.8614132626274585
  0.6124552848368172  0.2390174672208730  0.3547503874169551
  0.4872961186562360  0.1107102497891378  0.1117936221278420
  0.9903329509734093  0.9877309685004444  0.9814347234064426
  0.3598756724986421  0.4825367135278488  0.1088373988622402
  0.6098375432100767  0.6084485877550381  0.9862261720617268
  0.2355039990668774  0.1114652407796396  0.1142225419761214
  0.7352228892476290  0.3608296514217025  0.8619586622037161
  0.1121541934417703  0.9849149448661452  0.1106929418321732
  0.9899375262161355  0.9909329417060990  0.7368032592356839
  0.6139074538633863  0.3602361217956058  0.7360076932719718
  0.3650189582858187  0.1133898479748266  0.9915782635761254
  0.1094614416158666  0.7369436356542167  0.8620589808382764
  0.6102556669320880  0.6083310303719750  0.4878350292489406
  0.2353696169660308  0.2366652050173804  0.2324559578582889
  0.6111382224639836  0.8607171171935096  0.9855119668434892
  0.3577346690694852  0.2372569196203504  0.1093684953801702
  0.7341251189246035  0.8617965475694557  0.8615480710519664
  0.9870917855780925  0.8584821995336301  0.6086616132092005
  0.8616124091616923  0.6131759416067027  0.2330856184627418
  0.9871259178701680  0.7365403750934618  0.4866193653861570
  0.3513917887377906  0.3506062347027379  0.7474359156975963
  0.1108142008435024  0.7322462217667522  0.6105411005509142
  0.6110007152127195  0.4871238725471758  0.6120266314085937
  0.2324606022995091  0.6097843015208549  0.3569162512398558
  0.7390915168536416  0.3588890266134709  0.3572068816682112
  0.1098716043675591  0.6109841513322165  0.4866804261302757
  0.4853276503058394  0.7335070910106118  0.9884730956930170
  0.4847521726584524  0.8606580499431760  0.1110440272628707
  0.3591510937122452  0.7333503873334513  0.8620442025371533
  0.2345020090187105  0.9824639483667786  0.2347394262735123
  0.8608673336973233  0.2334362620559279  0.8598923478909750
  0.2339437560163403  0.8560482380456935  0.3581313097905814
  0.8636660608651201  0.6090809502802041  0.7353970423760682
  0.8603256016187801  0.4885148818863779  0.8632475867046780
  0.7365909553720801  0.1101287153167346  0.6144181146579168
  0.7352500890232477  0.6085884083056570  0.6065925576924200
  0.6062512327828004  0.7346473290937848  0.6085057723501666
  0.4832174380504445  0.7331389943747771  0.7335265836285136
  0.8632319398933420  0.3589926976620971  0.2328158430251943
  0.1085301387653630  0.6099097122245940  0.7353143959787620
  0.6078196577072968  0.7341835295464002  0.8624088532849467
  0.7360590658104070  0.4871342159446740  0.9872604548605241
  0.6118504564998057  0.9836868897887096  0.3564854182674264
  0.8608684181774752  0.1095582623327826  0.4814775613230287
  0.6099331932253527  0.8603546890525566  0.2365986300235941
  0.8612676143044198  0.9827037725647728  0.1107575211782323
  0.8623960986921724  0.2371711855989093  0.1096922022009861
  0.8614004147069639  0.8543358475548409  0.4870257762225574
  0.1090667445357752  0.4854884339850727  0.3580768086082302
  0.6086615586527905  0.8636841688141524  0.7359096197013986
  0.9824688477872230  0.4869442248082081  0.2327442579219711
  0.6122813003349107  0.3635699785792438  0.9882464118952964
  0.1091789294079217  0.4858968545906516  0.1061324316755169
  0.9839309417132068  0.2372107686415647  0.4801049479464449
  0.8607373920089297  0.7361033516433356  0.1079747226654465
  0.7389124371372834  0.2353082008198752  0.4826320866779261
  0.7373671645208559  0.3628582471825896  0.6127391334519620
  0.8606599076157418  0.3616631071076478  0.4816085949017451
  0.2359760199356984  0.7363767579847789  0.9847318811068400
  0.8590751726601821  0.3626570256002327  0.7387704478842086
  0.8604138922952658  0.1095106544273814  0.7385930271379681
  0.6071695770011559  0.8562592840300093  0.4847842581615468
  0.1089246669850496  0.6114235589149276  0.9870475639551698
  0.9852659046196680  0.8556827736052026  0.3607087534431316
  0.7347305441952219  0.8566447561601490  0.3573298445227304
  0.8639129055343912  0.9875484542783285  0.6127311886933992
  0.8649159396171267  0.9872044107862975  0.8620541960988651
  0.7379635889398769  0.9811987275323273  0.2333504946965064
  0.4807072099372787  0.9923504823459082  0.7424465130444535
  0.7398550981349358  0.6114681797140381  0.3613133286215602
  0.9869333505558104  0.4846488523462980  0.7356164964441636
  0.9906956131202851  0.4822351214797808  0.4851834336822146
  0.7358687775967325  0.8580093511720763  0.1117396287111747
  0.1119765702616507  0.2349575103352497  0.1069689070959427
  0.9845091763064902  0.3623302964902301  0.3591164421341596
  0.8594404778462754  0.3636746004702023  0.9838070761073887
  0.4832336733358024  0.4821745216839737  0.2334525940813848
  0.8626368502381306  0.4871713804201964  0.1071778986269531
  0.1088390166836670  0.2359135847458652  0.3565164061901054
  0.2292685901528445  0.2364939104191422  0.4802318111820818
  0.9893237070122274  0.3632204163014070  0.6121172414690190
  0.1106168204594202  0.1096974108401001  0.2335655108334237
  0.7368681182828759  0.6109976217477929  0.8663875969620499
  0.9846015217601569  0.1072639176621944  0.6055681285938791
  0.1097862379067531  0.4820707965851879  0.8612021212369269
  0.6060719244187499  0.6092518369547788  0.7338678675643182
  0.8627273280068806  0.9781356775717597  0.3559701848588975
  0.2318907440764045  0.3525750895391770  0.8611398524967686
  0.7370264703789005  0.9840613023789802  0.9871435301003829
  0.3590954603735991  0.3576537733823010  0.9862231460767478
  0.9857318844126816  0.7351371753132677  0.7363221345192030
  0.3619837646606215  0.6083542700768662  0.9855622779645878
  0.6163176079905939  0.1061879085958553  0.7367271710726300
  0.9850833083698803  0.9796712046270795  0.2330837700136146
  0.9845413350820333  0.2308095805320111  0.9847626019043951
  0.2414607703623325  0.9862178952910386  0.9935525847188633
  0.7359807583880807  0.8553379016777340  0.6139636571304548
  0.8627430250239017  0.7337797460780953  0.6106796812180404
  0.1088299197669684  0.9810241911341825  0.3569297333038146
  0.2311676098023162  0.6084210177315126  0.6132125145652332
  0.3715830023227785  0.2321986327272101  0.8702707094652817
  0.8624443763992768  0.7355450537940124  0.8617667063028788
  0.9861524313038456  0.2378588041369705  0.2322714303988063
  0.1041344722284012  0.1100683922956956  0.4787890090824004
  0.8691079144163401  0.8675197092805277  0.7362779447505993
  0.2474146437798014  0.1828257452775061  0.7754432530850210
  0.3627827052481059  0.9850523463746549  0.1155132923505311
  0.1147728761485304  0.8646320407051407  0.9841419473879915
  0.8626987015030755  0.8615314780387415  0.9832212856555960
  0.7325142147052416  0.4882229451661598  0.7409523500529643
  0.9818902823920231  0.3611114165548234  0.8628834964370632
  0.4836063045097138  0.6076521298491465  0.8609364059990082
