 C Cr Fe Mo Nb Ni Ti 
 1.0000000000000000
    14.4762002749200285    0.0000000000000000    0.0000000000000000
     0.0000000000000000   14.4762002749200285    0.0000000000000000
     0.0000000000000000    0.0000000000000000   14.4762002749200285
 C   Cr  Fe  Mo  Nb  Ni  Ti 
   6  56  13  24   8 144   8
Direct
  0.2255815255098855  0.2799712638708435  0.7331758514555631
  0.3471024900955150  0.9981316115901134  0.4864734957789177
  0.3871875673701504  0.1120349562121828  0.7321278332549100
  0.4305686104534138  0.2400282209268741  0.5883004404879281
  0.4424795551285852  0.2461150298013988  0.8700717256534773
  0.2363298706881116  0.1179922987904843  0.9035789392999884
  0.4692187316855671  0.1080363377422841  0.8547390719203480
  0.6035761318783300  0.3629426678346181  0.4808482828376160
  0.9797006065738640  0.7294666358751831  0.2363978582652080
  0.7210494124945686  0.4837744559217073  0.4791079332346397
  0.1103282524870186  0.3516917781839478  0.4889501809162135
  0.3523728738037832  0.0044962752920567  0.6216717172825522
  0.2150183277446436  0.9864393230568920  0.4764080099886805
  0.2152659464472174  0.2245955405434730  0.4848793354930443
  0.3483872813066839  0.4874920457145250  0.6136128348302300
  0.0967718990849227  0.7336310393627519  0.3564399460108718
  0.4801332817245558  0.9910898223678856  0.4842515521433134
  0.7243040606133252  0.1109281915971227  0.3511260364804391
  0.3511478549845523  0.6069177740168212  0.2360327645623219
  0.5992303599540940  0.3559516882588831  0.2332370104043696
  0.5994218376558379  0.1128956758097556  0.4823505028861747
  0.3493690207215667  0.8623361000716177  0.4848324952479439
  0.3478845138111858  0.3641545348885925  0.7326955227042130
  0.5959523258889463  0.2368830372632221  0.6123631815169244
  0.9753395316545937  0.4891256198980365  0.7345821141755218
  0.0949554732912011  0.9778079117370577  0.3577279488589807
  0.1051543369909046  0.3693765847444981  0.7402715035315567
  0.3166127876118696  0.2072625572903923  0.8262754821080662
  0.4712668038609235  0.8613414523262571  0.3595034445264443
  0.4773218468347895  0.2374747876570277  0.2342540102877848
  0.3545809496539224  0.1334714639749132  0.4952457222750050
  0.6002338057687318  0.9806654111893136  0.1116967595456078
  0.4855781193866122  0.3678010803643507  0.6083546593258204
  0.2225327939342187  0.1047001291990328  0.3593901235942489
  0.5964412415637240  0.8578188856092440  0.2409588492942241
  0.9714447736703410  0.9806602238706984  0.4777759399140719
  0.5944025499481808  0.7360763990507205  0.3561811442440984
  0.0944313558905305  0.2353104943123488  0.3626866445963233
  0.4703877935968908  0.9944648381615170  0.7361044632785797
  0.5984774300449577  0.1080138374165366  0.2336196425285042
  0.3471880742484504  0.4861323213590267  0.1095673536234147
  0.6009954683360533  0.1023546642259815  0.9861130752072963
  0.3508960964459079  0.6081234637728121  0.4833664894197138
  0.4772238582228491  0.3567956400923677  0.1129386067991107
  0.3498637026013341  0.9868879807858315  0.3531205519780827
  0.2204326051638922  0.3652824487480582  0.6174433648623511
  0.9744325379964244  0.3620816808660525  0.3647267083254280
  0.2265674592338523  0.2243934423892746  0.9916240020607852
  0.2253082785827095  0.7334977148395823  0.7331664842029724
  0.7207177156083416  0.7339120009784186  0.4819372133557558
  0.0979454721341468  0.1066137307267665  0.2390815470301381
  0.4652742626340519  0.2385013615533171  0.7302350534898184
  0.3133855699726127  0.2032098194532767  0.6515083199384281
  0.2285342932399552  0.3685085422184476  0.8472958722811235
  0.9833746098703422  0.2354639515019833  0.7208577432869213
  0.8515707021196884  0.6114138199736723  0.2354312619891062
  0.4788452026784319  0.1116609785845523  0.6143421088970759
  0.4741588892813376  0.3577614428848815  0.3591391582124429
  0.4938118756658022  0.2351481003770551  0.4692644885187024
  0.9740436974168436  0.4885215606143620  0.4816659394797504
  0.1197797812730528  0.2328536128020457  0.6312550258046249
  0.1046123359150357  0.4910099921464902  0.6097858940146732
  0.6009911085829733  0.4868811731647123  0.3641068006458919
  0.8509826484019984  0.7285240583971159  0.1160418336646355
  0.9740137380448181  0.6087029778539300  0.3596652831898353
  0.2258107096648708  0.9933287566640747  0.9695532412052972
  0.7256909206759214  0.6101968199900140  0.1133968560661824
  0.4715487904220432  0.7337349164370528  0.2349968900911332
  0.2252032721475604  0.8639930700935399  0.3583099708409558
  0.9725383036615585  0.1075052426010728  0.1111957475761530
  0.7183405843243122  0.2362881592081446  0.7324489989975778
  0.0974182154166277  0.8595650664556767  0.2375563368626051
  0.9744399260408462  0.6023916801146914  0.6066831862262512
  0.2311965227642115  0.4834104398142878  0.2324451034057106
  0.9746773238219696  0.8567288969536171  0.3590825597832969
  0.8515781123465221  0.2352738669747988  0.3614232894988529
  0.5996205858613444  0.2360646775238694  0.8573211970729905
  0.7218001418822272  0.4842609908105476  0.2339406790650433
  0.9667040417361712  0.9773627121986816  0.7333207190758622
  0.9767294858683224  0.7283705572551644  0.4793027109033131
  0.2238884325698626  0.2328721235145264  0.2364563244813643
  0.7226866275900209  0.4833929274499369  0.9878055379396243
  0.8509383692899410  0.6122183570176136  0.9882526264085887
  0.2255372072525515  0.8590098621085714  0.8611685133901115
  0.8510529887651247  0.8547057032043071  0.2368582273433050
  0.1007644290769825  0.6103735954282836  0.9851280649158820
  0.2246968844331654  0.7394545824181497  0.4826379372874587
  0.1027779337880970  0.4815256482706397  0.3618502987826316
  0.9759003949226751  0.3611767121186311  0.1133882474462768
  0.7252257698544726  0.1027371927930427  0.1114155572798793
  0.2235612457850193  0.7357733457277783  0.2366476684582366
  0.1002567781637442  0.1022597409707791  0.9855419670751301
  0.9784196322518517  0.3661846426228237  0.6054999633769078
  0.4767306203792295  0.4849742304329306  0.2392542510608355
  0.6002345990402239  0.7333756910477045  0.1118930492138041
  0.4725724712376105  0.6088889826334977  0.6067023527890164
  0.8520922841813920  0.2338506945319510  0.1079801515968993
  0.4732928638874412  0.8629370229082567  0.6096044556820607
  0.3477525918791955  0.3399552927690814  0.5028140565056831
  0.7232514780739000  0.7318931625968546  0.7344636446030222
  0.8484235327491094  0.2348966265787378  0.8569474071887841
  0.1232194201833257  0.2120877952218909  0.8337594994056052
  0.3545898074815662  0.3450508876248320  0.9666697746782766
  0.2445579141421681  0.0375222087253858  0.7697193281505056
  0.1073951621212875  0.3584291781285576  0.9751731674890919
  0.7216894239711766  0.9827404732601019  0.4813207927045806
  0.4769731785877161  0.8532131727567152  0.8642672507313960
  0.6012750383465070  0.4891821483235588  0.6052716478863746
  0.7230894199779215  0.8533472143334083  0.3580837756447345
  0.0895203324094448  0.1068343169516937  0.4805683955886322
  0.4768233817586103  0.9834619572005403  0.2340519624118144
  0.2250891938332340  0.7339708801673127  0.9877600126698701
  0.5989937304076725  0.9854883819567909  0.8604689905275211
  0.8481205324007670  0.1078241193577101  0.7300674352102886
  0.5958896395500863  0.8570736888584838  0.4832033166538204
  0.8512884083764156  0.6082262258687462  0.7310051010083792
  0.8496600400044528  0.8546548929194949  0.4818016709809559
  0.7244042066681133  0.7325170175913045  0.2354392995834230
  0.7237809183202153  0.8582740117175652  0.8619783602144030
  0.1045878538076307  0.4852056884605569  0.1115668939223967
  0.2033549301551684  0.0915854423831712  0.6004524303656766
  0.6011131887822589  0.1093802918292684  0.7357490689483911
  0.8497197570189288  0.9806586994566466  0.8600975564854006
  0.5982825193464828  0.8602075740761391  0.7331730330444184
  0.8488354395142604  0.7311487632820162  0.6050095673739302
  0.7203171419692148  0.1093861773838532  0.6105466728576021
  0.5992720028714200  0.7346773283129234  0.6056469970959563
  0.5980728302919068  0.6110359851157251  0.2376519488249165
  0.4738172294147914  0.7339425498837586  0.7335504813038228
  0.8474398133228274  0.8562541734311724  0.7314685099886626
  0.9746826104309518  0.6113323079321555  0.8592402787791390
  0.7253263852399700  0.7341012289898726  0.9878852844093569
  0.7242982146126165  0.9808423583247784  0.9845382903846759
  0.3502857521014471  0.6139574679987913  0.7329102135536272
  0.9743296214559877  0.4848242660466041  0.2372931958260330
  0.8479993120528199  0.7306428715945494  0.3605716858645296
  0.8493137902274804  0.1071612128161244  0.4819434990213209
  0.4738286187877329  0.4811224312340386  0.4806421482385248
  0.5983543558433583  0.4874082777612690  0.1088424601868209
  0.8514215302853169  0.9823033227990207  0.3578985962757398
  0.6032342666393591  0.7313412209929573  0.8636510830441876
  0.2236587190668802  0.8666921813085309  0.6119716416068253
  0.7267561163121877  0.6092118203760939  0.8623552520033501
  0.9770105951600265  0.2324145200142839  0.2364851121154922
  0.8522367117501296  0.1073731443916330  0.2370062805247546
  0.9777200228074455  0.2304976996323248  0.9809791748560042
  0.2265084700403844  0.6114237724795807  0.6074576352459580
  0.7250849840139963  0.8562224085256209  0.6063712647277536
  0.1013538725935911  0.8607513719304106  0.7312150473134597
  0.3483129512351759  0.7379315214523398  0.6115083965176578
  0.7250587609736229  0.3586054027721757  0.1088376482490485
  0.3515857569628420  0.2320982685439504  0.3567619178846695
  0.5993444817696088  0.6112782608117991  0.4818832026424665
  0.8526028319115845  0.4857885269320561  0.8583811103807616
  0.6068618748823507  0.2342707734916393  0.3520500535234277
  0.8460819109448169  0.3634235871674012  0.4837455223772146
  0.8513732415088652  0.7329441071159185  0.8600319275432289
  0.8484071625493504  0.3624108090915607  0.7311842284424879
  0.2294078146997155  0.3562983386513273  0.3613842082380859
  0.4836185902820015  0.3720176418929672  0.8515014333884066
  0.4775272804821464  0.1096996929917512  0.3548936750915011
  0.0887167844326602  0.9747362524433291  0.6014417390444198
  0.1036959832407726  0.6083726496077085  0.4856041924976868
  0.5986329480722584  0.6100951463024794  0.7328401397998708
  0.1020721114428579  0.6063879374828715  0.2370067558642661
  0.6021875121931278  0.8591766744483186  0.9883441039489802
  0.8498219574418668  0.1052505404073864  0.9833569046850408
  0.9767188964597134  0.7331888419050288  0.9889121895014691
  0.7237479460185550  0.3628464350675214  0.8585524026659632
  0.3517596977875204  0.3581489631349491  0.2345893372251356
  0.1000743983573223  0.4930910817441697  0.8564185321497003
  0.7246838320148167  0.3588733872725887  0.3595629304346036
  0.7244827257718195  0.9803840058256515  0.2384076351759397
  0.1002623463603276  0.6129059576181545  0.7314123227692899
  0.9754994696652107  0.8567686827973094  0.1140506792927745
  0.7195264992766486  0.2339075841643491  0.4817379945333511
  0.9737280976411719  0.1074756614879886  0.3592206032818440
  0.2247541060924496  0.6088139799403517  0.1116432843982320
  0.8493298189223076  0.4861053153515128  0.3601333014790951
  0.3514987930041693  0.7351275414554594  0.3603990028343159
  0.3625832810629341  0.9760587728692416  0.8762750686702968
  0.4737343823670311  0.6085596710727484  0.1099707248845004
  0.0987217736471850  0.7322035400983951  0.1126777150998623
  0.7246200127959461  0.6089526349759689  0.6027002289471098
  0.4782186227279522  0.1085076003888082  0.1133897101133478
  0.4730034767271070  0.4838862106952919  0.9883886316805931
  0.7261067976918397  0.2362149974784053  0.2334320897651574
  0.4832039183710177  0.2238343349674123  0.9947134068122948
  0.0980916550433153  0.8582040777751337  0.4837705782724635
  0.3470579349089726  0.7323684306082846  0.8595367898039559
  0.4735968496929160  0.6113596028407056  0.3621003383430058
  0.7242495052008541  0.1063806134724636  0.8612414335549753
  0.3516533023840044  0.1095324026621129  0.2358446392214762
  0.5971611210657140  0.9845682442796723  0.6126360177375634
  0.8479625699823872  0.4878375184145711  0.6063174907043118
  0.2239536090157561  0.6142758141699743  0.8597831215590561
  0.3503167590115138  0.6108081351313683  0.9868943830068104
  0.7218296031234265  0.2355105952794982  0.9849344492376335
  0.8505864009633191  0.3607819928277343  0.2376625715706567
  0.9703107185487466  0.8554636930675900  0.6056561165426286
  0.9742139155162571  0.9835784953983406  0.2333822911459197
  0.9725489262621653  0.1044410693144046  0.8546655083726404
  0.4709216564621228  0.7367428263560704  0.4825883992948855
  0.3498557218342843  0.7326451354845415  0.1126652786186684
  0.4799785274902211  0.9856409677213905  0.9911215546006167
  0.9761913032273150  0.4860647213543182  0.9839934265465322
  0.3518009224740982  0.2314064060930317  0.1116380587097020
  0.3474288602962874  0.8545169346047878  0.9918553582896978
  0.2275617862304763  0.6080826978384939  0.3603627681212172
  0.9760967550955187  0.2334439111766723  0.4880320588306403
  0.9760172441439838  0.3626879478175974  0.8528146073262003
  0.2222025230734391  0.8603189859430340  0.1100615162794985
  0.2223025149452948  0.9819893974079593  0.2359837964705563
  0.2299275285597399  0.4882319461618906  0.9820984046974457
  0.3521573904700438  0.1102164787821511  0.9835722446144033
  0.9723176343377833  0.8557941233503376  0.8591282089326848
  0.6007153804668020  0.4886790741532572  0.8597770265599824
  0.9773073852898591  0.6070096036033961  0.1130887245500004
  0.2267875379690898  0.4962166996725136  0.7350597404651137
  0.8525337727827571  0.4845254051828026  0.1121509398741121
  0.7236015570512874  0.8582523295294444  0.1138373212837382
  0.8488326991136809  0.9797587627696639  0.6068336536597827
  0.6032773255239847  0.2326279899767904  0.1107034672639381
  0.8515378763037177  0.9815505561997865  0.1120535617118567
  0.3499413659461875  0.4908381103065002  0.8570064930022420
  0.6010809288443615  0.6092923456312818  0.9865562409166871
  0.2291873825552964  0.4839371473388988  0.4880430529859451
  0.3510635833475149  0.8588444271246900  0.2361434605365518
  0.7223529905100176  0.3616164889425357  0.6069010511353738
  0.1005131437870011  0.3585994239351969  0.2364798248406116
  0.6026428377298804  0.3637005064510522  0.7309869722771628
  0.0988736156651833  0.7352418092713748  0.8599657005176069
  0.4728562504554386  0.7330963580864410  0.9904907025345011
  0.8466620516565784  0.6074746278772556  0.4826142208026662
  0.1007512649649262  0.7356712953945652  0.6093715262280530
  0.9687007084180517  0.1052105960821291  0.6038739142622133
  0.3449145420595642  0.8649815847458824  0.7356099357557320
  0.2280897606805296  0.3587517634318939  0.1092168265057900
  0.5968424705654785  0.3598619678620801  0.9862243077654240
  0.9708717371063699  0.9837693836689551  0.9881430304245450
  0.4750758976843793  0.8584724821073877  0.1128670217430571
  0.5969065531083920  0.9836427787890856  0.3562179432078480
  0.0987937965707519  0.2305269481057604  0.1112229531401052
  0.3475912464132512  0.4812416316473944  0.3625878547870182
  0.7236071422100889  0.6114329849339075  0.3590737638722363
  0.0906277372076408  0.9795900428956069  0.8556693235180959
  0.2233802063060338  0.1054795770773246  0.1158361430991355
  0.0854422507440734  0.0904356000850210  0.7202933323238057
  0.0996889615776710  0.9832926425107645  0.1140438244495236
  0.8513491235061480  0.3627443747008520  0.9835768250206393
  0.4757558421796900  0.4866770621558494  0.7319549545533988
  0.0948022618351566  0.8620165342484095  0.9900681709310885
  0.8493554769308590  0.8561918956098603  0.9866489539498347
  0.7246205453970577  0.4881778019090130  0.7346410306934013
  0.8386759410844825  0.2316978091594190  0.6060123726832561
  0.7246092463443513  0.9820074358780450  0.7360732126673559
  0.9760808911932722  0.7343592199711797  0.7335638104551983
  0.3497968921251884  0.9842728468498471  0.1105088926296853
  0.4758453380449956  0.6113616504317712  0.8621801529413312
