 C Cr Fe Mo Nb Ni Ti 
 1.0000000000000000
    14.4762002749200285    0.0000000000000000    0.0000000000000000
     0.0000000000000000   14.4762002749200285    0.0000000000000000
     0.0000000000000000    0.0000000000000000   14.4762002749200285
 C   Cr  Fe  Mo  Nb  Ni  Ti 
   6  56  13  24   8 144   8
Direct
  0.2218805329658694  0.2860649337764991  0.7340151023615684
  0.3431382202465068  0.9998101495541949  0.4860652949282572
  0.3877294546972789  0.1064271306856017  0.7284137823498755
  0.4167979639250644  0.2385915004255126  0.5863075739330869
  0.4708019904765265  0.2269768192327431  0.8582561851285850
  0.2328322443329611  0.1356812957887845  0.9036223527644449
  0.1004398176086257  0.6094060602514850  0.4853760661145717
  0.9720580958770172  0.4869766106611678  0.2361698538806726
  0.7216987490746624  0.7339779036422008  0.4812203793215180
  0.6075679111917008  0.7299311537614820  0.3637880880033308
  0.9729613582331158  0.1061958228922713  0.1152846672195116
  0.3503191485095985  0.1339466091467411  0.4951140818532917
  0.5991066189294965  0.1123633848195162  0.2312431976586362
  0.4714809379982687  0.9897130714147737  0.7325497227837885
  0.3436188464411618  0.4896445898106950  0.6037001133451610
  0.9708533674851019  0.9815211254824945  0.4788586538693583
  0.2203128341238511  0.6140338814135752  0.8603680120325971
  0.0955703441503096  0.1057218598859982  0.2360893896663399
  0.4714577709188649  0.0948590507498289  0.8521435187552964
  0.3379419582650168  0.6111341941203902  0.4831734589571149
  0.4723555666852537  0.2299923258193062  0.7225421371098406
  0.4787750959927216  0.1141777201052149  0.6115018858405695
  0.3422430708685428  0.3667996507948417  0.7149135293290867
  0.9737102229214678  0.3668205902122560  0.8480442920138702
  0.3089569125184917  0.2007563125163332  0.6548340919764265
  0.3445853443031759  0.4847319632830856  0.3694142069593548
  0.4699388705160269  0.3623076124829774  0.3634541150550693
  0.2242358974434271  0.2348886178133840  0.2344805979432700
  0.8553280461538886  0.4831767827027491  0.6003396813803383
  0.8530410147848284  0.6095053370265581  0.2374614382607617
  0.9741068403102116  0.9838463884584805  0.2327951933656907
  0.2367893103250771  0.2374309753616195  0.9948518880879585
  0.4734050681900578  0.7298445459566966  0.4792650030732225
  0.2153023343628729  0.7333296555559389  0.2393662617256869
  0.5990415092414869  0.1145445672398376  0.4847033933434749
  0.2248642556793387  0.3588567011038623  0.3640173155025554
  0.4688547664887330  0.2281790939642316  0.9917748363428519
  0.4783759075060369  0.9943655025806076  0.4865009122858364
  0.9749645298506823  0.7309150324620627  0.2355134528016042
  0.2174185086612784  0.6094070610104794  0.6039545471536216
  0.0954663329112702  0.6082931472356481  0.2388421609385358
  0.3421626159120614  0.8629699022146127  0.4851425914458693
  0.3503525005168309  0.0044135043985408  0.6211161415327945
  0.4753748033054863  0.4783018137958554  0.4806065593777251
  0.4722589152381738  0.2352101255537541  0.2344882967893502
  0.8504977902618878  0.8527814800303053  0.2361725920483843
  0.3506912480257537  0.1166779952873908  0.2371421867520682
  0.7265513471809322  0.4810389104290009  0.4818331732961325
  0.5999625450170504  0.1111205688389428  0.9809923646584688
  0.4752888727058392  0.6082933220983396  0.3656658703549520
  0.1000205296399173  0.3610425780961670  0.4852961466479100
  0.4914721774499128  0.2359664754164014  0.4742124333347262
  0.9751642488690239  0.4860252706017557  0.7326613330617557
  0.6052884186024772  0.2265532781387537  0.8619855302321364
  0.0980828168346326  0.3685104495597775  0.7418814515382803
  0.6067922290967945  0.3598976014874367  0.4819369630920704
  0.3412910407637413  0.7313772086826662  0.3639067783551254
  0.8495316195262322  0.3701410766448509  0.4839281407184408
  0.2147139717593151  0.3665208496398417  0.6135646879312801
  0.0967196738978417  0.7357524732155348  0.3583291187860661
  0.3452310297873735  0.9919173741713270  0.3531120236520852
  0.3483747656224473  0.2337864074858206  0.1138722496089312
  0.4732173822656274  0.7318995340961080  0.9942862922103000
  0.0952891129696396  0.8570557889818990  0.2369678829349098
  0.6015899348263412  0.8553925893032081  0.4850694819922081
  0.8517509462966604  0.7315375362676543  0.3609152446848000
  0.9766260700983879  0.4825927963248234  0.4843561090473847
  0.2138726654487494  0.2280262213290057  0.4851351098412790
  0.7253201165945451  0.8530203199288982  0.1158072158814748
  0.0933543335887444  0.9803504620814426  0.3549702380872049
  0.8529031496308259  0.4836784803688926  0.3630299731518443
  0.2330476157174447  0.3694218397311698  0.8510580455192904
  0.9766517821728699  0.7313083154963795  0.4803883894564659
  0.2176419921184855  0.4840813025012345  0.4834650851389684
  0.7229632382291985  0.1060073390105475  0.8647518911613155
  0.1238723741509520  0.2236142694580888  0.8339809436019303
  0.6010382915846105  0.7338333408537372  0.1123467254468570
  0.3482632216152857  0.7307660595581251  0.1142777655788181
  0.5950847769646503  0.3586734503286926  0.2332274409569028
  0.4757895295413880  0.8611938511316661  0.3646262937733500
  0.4747138003890952  0.6089256284343652  0.6002737180592489
  0.1006487445954940  0.3603457468838075  0.2355843689521422
  0.8529863597687244  0.2350279731593195  0.1063666573983851
  0.4733418626395113  0.8588305609373592  0.6017938130442592
  0.0871003879240024  0.1038414913358290  0.4789470500884692
  0.3436137958110809  0.3403142715092496  0.5047692087316502
  0.6003308136490644  0.9802957136667845  0.1099178246625238
  0.0998137915947257  0.6101220347566846  0.9831609079512693
  0.3480342955956572  0.4862996510699415  0.1130887940034084
  0.2211975962291365  0.8681293608181426  0.6122351201468942
  0.7209445507558150  0.4810147809319401  0.9867595526063181
  0.1109581665465219  0.2320892684617877  0.6266179008496290
  0.0927922735337082  0.8579852485485999  0.9881725279651511
  0.3259497799210576  0.2205099051222155  0.8335736586216392
  0.8489612693538787  0.6085748533674233  0.9840883074625985
  0.9663456252489719  0.9766775924909248  0.7343561817734559
  0.8498185726959770  0.2371335908796493  0.3601637063421498
  0.7275952097006035  0.9841757115331358  0.2338574839512009
  0.7296975398857299  0.4865689209457064  0.2345627294320795
  0.7242716071415661  0.9840449802650195  0.4802334504381870
  0.1034916176885009  0.3563003313622216  0.9782912947389126
  0.2443377465817695  0.0461191104804554  0.7803088575791010
  0.4794254617712866  0.8508391048269027  0.8632259606208909
  0.1052865863680740  0.1023512974846481  0.9781526364525623
  0.4703895957163688  0.3726364969932595  0.8580949704821251
  0.8457114074552761  0.2308540066881643  0.8605001687303582
  0.7250392249462145  0.7306173010479274  0.7333011165511791
  0.4724239809730754  0.7312983017430300  0.2410065269337306
  0.5994246515843662  0.8546216381827847  0.2394439116190441
  0.4770644484636370  0.9840259264190767  0.9876366865695262
  0.9745718816856295  0.4846833362849887  0.9833233792129618
  0.8519811019199007  0.3600234643222141  0.2356017525688162
  0.2266204415459827  0.4883436939143067  0.9829846558554576
  0.3489381095250034  0.3601459023155350  0.2380909855425895
  0.9764597695382193  0.2388058476145110  0.4865237224447054
  0.9738486581115290  0.2319165123029789  0.7357064525716981
  0.2192813465790013  0.8560594619736154  0.1137117366338438
  0.2204930352589239  0.9832891098542572  0.2368301927294845
  0.9682541528123209  0.8549416747552935  0.6036349408527260
  0.8495478910575305  0.1048905386589621  0.9869201066832777
  0.9734446767331072  0.1040605099270338  0.8566140514581695
  0.0941442746205500  0.8583628165857387  0.4813493222017463
  0.3492353690380021  0.8515406539366660  0.9917102867573964
  0.5980814439740963  0.9840622785006301  0.6102443419528563
  0.7218192476175617  0.2353186470911094  0.9875243646242277
  0.4737755409242947  0.6078241047683923  0.1155713570670006
  0.0962542153119919  0.7320449903785267  0.1140816189896499
  0.7280202927741514  0.6051771525899703  0.6031203778294013
  0.3479332615141267  0.2339617029458524  0.3575970968118268
  0.7213118881188465  0.3585230773236639  0.8605988066384616
  0.3477199480818319  0.7292045159767119  0.8568981716066292
  0.5989556417729029  0.6080726015499206  0.2384238599873580
  0.9713476743397422  0.8568339031133401  0.3587631330344587
  0.3450046315122114  0.1025790327596125  0.9822592499458318
  0.2132324634206826  0.9829935988130794  0.4752187620901570
  0.4724343275887075  0.4891253055473423  0.9892356545823007
  0.7244158462014394  0.2345757381542954  0.2307329934809546
  0.4729901289982399  0.1090059793263835  0.1107015427412648
  0.9779804550984448  0.3596879279742684  0.6113051524918756
  0.2221527714348011  0.7319914190057905  0.7310792402460228
  0.0965079033776813  0.2338255265687701  0.3592655921895977
  0.9694678043298729  0.8543699942676432  0.8599476637730531
  0.3469420472573123  0.8569692499381445  0.2394590704250188
  0.2223316154446186  0.4943129267878412  0.7323983488755283
  0.3466587984389800  0.8604555969171086  0.7333251265722124
  0.3481420072451463  0.6087918169151295  0.2424368177337243
  0.5965004668323864  0.3576853053679098  0.9860622722087466
  0.0999115110661799  0.2307427623483090  0.1107061391468938
  0.0919166961685288  0.9713833445976066  0.8566277806764074
  0.2255879240376279  0.3624292560761769  0.1132498653262774
  0.5988526582993364  0.9887768960168056  0.3574723082722529
  0.7285208099838723  0.6076721940523819  0.3615445217567557
  0.2231108817930970  0.1065569247879369  0.1171346677330619
  0.8510642930246953  0.3621242082897404  0.9824604017456815
  0.0993760814940982  0.9809883797047911  0.1123104343873227
  0.3577055724618840  0.9690085017582125  0.8741505606050956
  0.4726154370563099  0.4868655723613678  0.7265854511117297
  0.6009092236512180  0.4884017513704048  0.8588944613376922
  0.0857761895388635  0.0922719053531551  0.7283196038008141
  0.4746326885289549  0.8569662565823800  0.1158674298416737
  0.2239615636535915  0.9738419047118397  0.9804798181324968
  0.5968697468826235  0.2319938187618214  0.1071903646600318
  0.5988154052124628  0.6086816179723096  0.9863754307444866
  0.7253441223590708  0.1120129143197142  0.1074399800144564
  0.3439721527876728  0.4938168543697848  0.8548629096954072
  0.0956682128043620  0.4874031795892564  0.6099532754467885
  0.7256846521364307  0.3595980578350168  0.6079745758956583
  0.6013351436559324  0.3596351601128610  0.7341935154528549
  0.3481108266443749  0.6109087489492124  0.9855841252856230
  0.0980468982284849  0.7359295523053820  0.6063829567041193
  0.9744606915553009  0.3594750776871085  0.1086648982518728
  0.8534283590694417  0.4833326599471888  0.1103149475973863
  0.0960599399911105  0.7345857955256038  0.8592577304598316
  0.7285454367432476  0.7301365272303365  0.2377655548944144
  0.9731959078700977  0.6088220851334113  0.6040173107836908
  0.8495277500010362  0.9801825944996890  0.6064374677776380
  0.9680378999749039  0.1061509206974997  0.6078554868963970
  0.9744201017989167  0.6078820507592368  0.1123298275720355
  0.3463309669596255  0.3635896864480583  0.9860988273149005
  0.6026638108133761  0.7290928769779553  0.8619446912128056
  0.9766970577407659  0.2346184070767557  0.2338416719391962
  0.7244338542416071  0.1099290862141563  0.6085977064415508
  0.6023080174205168  0.7327064148147534  0.6047919181432033
  0.7257843586963295  0.6097110372792642  0.1118468125178584
  0.4716965496913228  0.7321560865990532  0.7304486587382668
  0.5979647637726779  0.8574536413785520  0.7304411512525238
  0.0988580814261326  0.4865290372805594  0.1109024953072534
  0.9702011834223716  0.1094999431892128  0.3549447783097770
  0.8506844569112193  0.9825668200051948  0.1112025994053907
  0.0976110844935981  0.4856578199288812  0.3615238167832119
  0.8474573393242004  0.8559533656376053  0.7319534821691878
  0.9725590288066084  0.6079865400646340  0.8577239659766708
  0.7244229626454834  0.7310248134884426  0.9861348415111800
  0.8494747319653125  0.7310980359926661  0.6035566321489785
  0.8538388629237594  0.9825523763378315  0.3564748115661692
  0.3469098764740051  0.6119052231676524  0.7286281068306839
  0.8522288528642770  0.1092500863025772  0.4821253193685580
  0.6008532489065291  0.4847278139573099  0.3612826863948949
  0.8507585553228056  0.6049100185797091  0.7303290384035014
  0.9757980116551515  0.3605571948775015  0.3609878834782035
  0.4729453759246188  0.9865143374028750  0.2353092714778124
  0.2233484764735004  0.7338978104361059  0.9872860791015402
  0.6021773034237619  0.9836828702716168  0.8605301530756726
  0.8475226893909897  0.9820931227134231  0.8608030405779218
  0.6036802290665758  0.1074679459236910  0.7347272449470683
  0.7266969447460609  0.8551580476749875  0.3568537813608990
  0.8466643196388924  0.1053818997467721  0.7323808690494092
  0.8503449888678277  0.7313887747114959  0.1124921189063992
  0.7237413804099097  0.8575187247300232  0.8614980323524688
  0.2232003383794489  0.4863017268099766  0.2383278328978706
  0.2047736234021861  0.0868784031725980  0.6049654246560022
  0.6019977460363315  0.4838395277560936  0.6061116256519526
  0.2186687303509146  0.6078954200001503  0.3606432752632404
  0.8491960702698327  0.8538431408146565  0.4811234254672342
  0.2211824806424375  0.8595959131596560  0.3572925198514771
  0.5975441517798616  0.4860107997130583  0.1104709769869725
  0.8505883043319948  0.6077761085979592  0.4823535618500800
  0.7254967819756928  0.6081617730774066  0.8612208044788200
  0.1006757119529383  0.4909118563893495  0.8570590791729594
  0.7210071393462182  0.2342593324518972  0.7347162423049635
  0.4713447191206117  0.4854187404181968  0.2395174594984886
  0.7257605525644464  0.2354448510185254  0.4824977780018670
  0.0983364417576791  0.6116980973493288  0.7315106428958275
  0.6053534054582183  0.2342063146524695  0.3543503522208311
  0.0853646075709132  0.9750680752378461  0.6051778927864323
  0.7251039200530087  0.1129769253289971  0.3570103616016305
  0.5988347634769899  0.6087147941050890  0.7307187976421998
  0.9712865752429589  0.9826042081901722  0.9864697846016707
  0.9738630437900103  0.7322030799003776  0.9866507407995715
  0.2208477414910385  0.1120665455476102  0.3561983563354927
  0.6041469437651000  0.8566069282011091  0.9869097182595997
  0.6067187076576571  0.2353362603084276  0.6094001131163352
  0.7245276956061304  0.9842677330909996  0.9876111891126550
  0.9735013800963864  0.6066904570838418  0.3621563941523089
  0.9728822604398308  0.8572497245541648  0.1136141196315534
  0.8502310323578901  0.4849505887582097  0.8571059154487143
  0.4714993873397755  0.3588489515493937  0.1081540512855896
  0.3420698625193306  0.7349238922004410  0.6085314210309207
  0.8494131390993718  0.1101345810960656  0.2335966748207043
  0.0961606628334442  0.8573174942525037  0.7317312576098490
  0.2205161231466643  0.7380636164649372  0.4832394026301636
  0.7263335627730179  0.3586945692282770  0.1093523655959648
  0.7269174660406379  0.8557922860320721  0.6058025585908335
  0.9773407582539398  0.2312498808786713  0.9818401065255251
  0.6040657272523225  0.6066034702995671  0.4835740007143325
  0.7255812513418398  0.3590737387578968  0.3579877187173580
  0.4774169761144319  0.1122259214650932  0.3565743109515248
  0.8491089259513905  0.3622816252317225  0.7306209744036681
  0.8502131251996959  0.7313604088602293  0.8592808770873117
  0.2215369277597180  0.6087171525510376  0.1136858099236468
  0.4858823065665685  0.3596338334344681  0.6089922583139358
  0.7246349841319810  0.9799878699387395  0.7334398307057998
  0.9731461682057714  0.7322787849235881  0.7313327240773090
  0.3472760687930327  0.9793795918186818  0.1107707557593365
  0.2263965333258970  0.8514975241532274  0.8541374977231814
  0.8461145598098792  0.8565923532333496  0.9860477312231049
  0.7232432513457687  0.4843463076297193  0.7359545911944897
  0.8493841994828014  0.2339217909727208  0.6106999573919841
  0.4752435523917655  0.6092224725227082  0.8582148565693721
