 C Cr Fe Mo Nb Ni Ti 
 1.0000000000000000
    14.4762002749200285    0.0000000000000000    0.0000000000000000
     0.0000000000000000   14.4762002749200285    0.0000000000000000
     0.0000000000000000    0.0000000000000000   14.4762002749200285
 C   Cr  Fe  Mo  Nb  Ni  Ti 
   6  56  13  24   8 144   8
Direct
  0.2377901878294834  0.2828353648223965  0.7363387593059566
  0.2620718151198806  0.1304468225587857  0.5890202375593133
  0.4017473223466486  0.1193658684583223  0.7458916269853546
  0.3795291502594945  0.9877273232302776  0.5220593468082712
  0.4656076352928541  0.2218263951052642  0.5867641775587583
  0.2436827199460589  0.1473182799084886  0.8882833497537084
  0.2289240912094152  0.8616360460027237  0.3588210326568634
  0.6089838247999992  0.7364386966640926  0.1102240582714994
  0.9776620570444818  0.7331266100248085  0.2354905670661596
  0.2386565085217243  0.2289106238799755  0.4850819324842304
  0.2391970788010038  0.8591079484935614  0.6042147926024118
  0.3429694165639973  0.0299497620673730  0.6491572258879611
  0.1110431759710123  0.3618893681498225  0.2353809547983455
  0.5019204037171259  0.9897399503517937  0.4704775052537382
  0.4878877628958744  0.8621281709186233  0.3600058807642186
  0.6098118760638399  0.4906865033095621  0.1132228873233197
  0.6147144867833290  0.2381839505343356  0.1145631848225743
  0.2378962983860159  0.3658950543694977  0.6147631565298279
  0.9807971047752657  0.6105939502173395  0.1090739347280212
  0.4833025076041538  0.3702522055630997  0.3562439593420637
  0.2335902362528144  0.3672894094395097  0.8531067444139849
  0.7343811304892781  0.4947265318258808  0.2325150701829224
  0.6097509989514103  0.2349786062302617  0.8611195822862283
  0.4943794062562568  0.2442150583978581  0.4572340135707669
  0.3441198530116339  0.2283532611026417  0.8339747028188121
  0.3547261007441531  0.8579603159644391  0.4776474334102306
  0.3399459933391938  0.2278680092206212  0.6450255278346942
  0.2327113218690132  0.2541657012623589  0.9829536064419049
  0.3597896118786968  0.2452543811647890  0.1199462622215938
  0.6055595831247408  0.8579600775779566  0.2381294782026845
  0.7362689407577352  0.6081641086007580  0.3637543607866919
  0.7340441439339751  0.4861078783685797  0.4855318541242417
  0.3552128100561316  0.6183642976884925  0.4936525324743744
  0.4888595957859150  0.2311644709756554  0.7319352117647177
  0.3752664899750788  0.1290684849356258  0.4997807046071618
  0.4829114499671477  0.6122705783646736  0.6010435700028368
  0.7355428688868514  0.7345817853166631  0.4807351542536070
  0.8618543603464215  0.6077760523448722  0.2360003718106328
  0.4910670590213116  0.1189631421658550  0.8610231566099749
  0.7305405259558385  0.2420704074104177  0.9873584989246184
  0.4809144426990908  0.4869887124439446  0.4826573442375061
  0.6212492515828214  0.2420466734744983  0.3572384603749579
  0.2440704553411840  0.1324219722252959  0.7416862813598993
  0.9836660089962445  0.1106553317433961  0.1120668073464644
  0.1095526498397147  0.8572444757213314  0.2377124651746688
  0.0892255880734192  0.0915247214995401  0.7417056639024983
  0.7342104414749440  0.2407408476867354  0.4819522612400949
  0.2296585917006326  0.6171224607188566  0.6075469529577202
  0.2371284063098996  0.7315385201537337  0.9860858736895652
  0.1101853131945695  0.6157147317650461  0.7313494011166919
  0.8593824555491361  0.8598105858204067  0.2369179957467449
  0.4947526541471868  0.2362866312140142  0.9891554365245062
  0.8576486649885758  0.6116471458624363  0.9867892764566439
  0.7318735667470132  0.3523419347546605  0.8637401535287416
  0.1063956965519562  0.4873948406026605  0.1142836428259792
  0.3538321313966134  0.3727716811477531  0.7355125844099345
  0.1410098513367726  0.2300834473305305  0.8324842937436625
  0.4915352935967976  0.1152054958689295  0.3548556129914599
  0.8599392725737288  0.7338412939130623  0.6050065266086893
  0.4865868456361367  0.0959423524786240  0.6164825907685522
  0.3634917845167686  0.3454355530419479  0.9837658253900295
  0.3543177690063551  0.4805954947365035  0.3624487819321136
  0.6088563118984188  0.6114613194463713  0.2340600306562122
  0.7328219548405177  0.1123794250031979  0.1104136288262054
  0.3598339797984569  0.3621449353976492  0.2370677373187816
  0.7354266286316199  0.3656087059228154  0.3602554722377572
  0.8595112904881705  0.4847248416400299  0.6099851957695015
  0.7346642420765814  0.3615251587153985  0.6033424075667264
  0.4890167893308097  0.2411565094728692  0.2400725651186174
  0.1154613404640217  0.3668374885337657  0.7309605840054838
  0.8593794283182322  0.9847184842366602  0.1139512682854824
  0.7329124819874004  0.2423615515206097  0.2309650720421008
  0.3562386134868483  0.7420913170550243  0.6079686375528682
  0.8596534171008637  0.4889879701296396  0.1087200910280825
  0.8599106349868852  0.7367250854327897  0.3619603731922339
  0.9832813711778110  0.7346431900432119  0.4836174437284826
  0.2333143680131850  0.4866538398695607  0.9826713845873384
  0.7355028423711583  0.4854051855647571  0.9836234028486451
  0.6107734366133227  0.9874906660524716  0.1110830304708162
  0.3575578323087643  0.9957947151645042  0.3657873054273615
  0.9811190296853807  0.9862842515552783  0.4827811071738212
  0.9835653161204101  0.4831920827982506  0.4915202558236987
  0.4829756364661961  0.3622521537569416  0.8548866125147355
  0.3614399385394710  0.4835220864011149  0.1103248556019529
  0.3577308139181758  0.1320215675425508  0.9912320164028275
  0.9824257091298165  0.6121667226526678  0.8590219553300306
  0.4826852969823772  0.6098428111854123  0.3631734551386642
  0.7345551352825668  0.7308458721726249  0.2364912126779624
  0.7341839628162989  0.2383908784396875  0.7364210179784282
  0.8571438383808098  0.1117673075833257  0.2283748605696050
  0.8573912862862771  0.1096696796685853  0.9916583951082106
  0.9831982884752758  0.3642334762706872  0.1107285576550893
  0.3528135933860822  0.6171440537778115  0.7272972720169546
  0.1093336187878234  0.4825754107080232  0.3594770614393591
  0.1055688597038018  0.1141929994914439  0.2351654178998870
  0.2383394279322756  0.6130126419041434  0.3606065366454006
  0.4703019118483767  0.8805019220913785  0.6048247637754908
  0.3574135838831080  0.7381040616972329  0.1114876641794508
  0.4791084815165704  0.3634731620500721  0.6092992902223372
  0.2259133085893153  0.0063240981597414  0.5038911439371924
  0.7298908608041851  0.7368145499179074  0.7349409147013507
  0.1198987609430161  0.1089546342768461  0.9785182202093943
  0.9815311789215663  0.2426017528974064  0.4831328316030475
  0.3306732822720503  0.0164260169179728  0.8505044673265969
  0.7337899615608252  0.9878708677307279  0.4831568688405689
  0.4842016815632228  0.8605857212006345  0.8635680233229655
  0.1338214378652508  0.2171426165530765  0.6281733070895734
  0.2321302112554847  0.6124876658188600  0.1136765075992286
  0.9785813430637993  0.1108993887172253  0.3556367303851531
  0.8590931947169472  0.6088442136358574  0.4848847788324510
  0.6131508390161701  0.1147551833584324  0.2355917691168997
  0.8595879022946197  0.2379136375372004  0.6112276859813908
  0.8592023411897501  0.4861432069081704  0.3618331481933438
  0.8591212782856803  0.1131379136009193  0.7357943728877738
  0.8590325070636021  0.9854624069779351  0.8642500043188649
  0.7351693900550399  0.1127285007133487  0.8639964125770984
  0.6092797900230796  0.8587078498566493  0.4845701839038858
  0.8547033368598266  0.3668343684805009  0.2355581945522834
  0.9832994957979980  0.8613349113373235  0.3582382241753935
  0.7356606531217715  0.8592653662490412  0.3585382928025518
  0.8590895825145610  0.9864183141337497  0.6101368803394783
  0.6100189481368101  0.9895213970157455  0.8631945993958569
  0.1077878552767564  0.6113418581487988  0.9878025505209170
  0.8570033837127196  0.1144561665602090  0.4833849214263462
  0.9826264358770874  0.6101099089996020  0.3602038205653025
  0.7371323350806993  0.1147557712558247  0.6087493447782190
  0.6053574156797249  0.7388462237424174  0.6048422276797860
  0.4809914020523959  0.7402619594895067  0.4849334001606200
  0.4822853604794224  0.7408635649252705  0.7286494293688128
  0.9836088812419399  0.6116237971924005  0.6112458672700412
  0.6096015997932529  0.7372437377337296  0.8617367916499271
  0.6050405193826073  0.8655599930586210  0.7297536100281482
  0.7324250488041916  0.9858438080400832  0.9872259149028102
  0.8578372091804048  0.8594501906771828  0.4822293208729128
  0.6147428950272055  0.9867463384968018  0.3514771960620707
  0.7347105057491379  0.9827034819288532  0.2331437972392387
  0.9730482271299051  0.9791406208294002  0.7413399068060345
  0.8593350366143324  0.6082860201331896  0.7322866922322366
  0.4848326279035314  0.7370046996275145  0.2349350804096085
  0.4836468905966387  0.9904532357479334  0.7460618082867492
  0.7350874885173928  0.6125741352392575  0.1090955293785017
  0.2345842309599384  0.4853296694075410  0.4880752802876529
  0.6113924437011213  0.3674064600550317  0.4833526016326897
  0.9820475920166479  0.8595775493548332  0.1154026560950844
  0.3586401047034681  0.4902785581564488  0.8597313356251839
  0.9773884714241406  0.7325932238191614  0.7334391279739926
  0.4847354383479600  0.4860218625007805  0.9876719155054327
  0.6097753905419800  0.2359518708729841  0.6044858843996200
  0.7361445267926707  0.8589354023903814  0.6064202445303538
  0.9876056535672819  0.2346363195642228  0.9852575473758599
  0.2315716458240381  0.8595838846250773  0.8670560363872987
  0.8572710563654057  0.7344921174742475  0.8614708437634094
  0.0970728199657749  0.1165004008303238  0.4755385509782382
  0.3552670043388816  0.4897729945707705  0.6073763051392871
  0.7353365407215502  0.6110519980503072  0.6040716043333118
  0.7331319809763904  0.6121285085738832  0.8630149599833828
  0.3545634183928243  0.3592342263228800  0.4832011190744265
  0.1087051105828451  0.4893892075545220  0.8570086058588129
  0.1083907838633506  0.2408112808572888  0.3579039444056148
  0.9832187983614280  0.7333550665447357  0.9884475562641941
  0.1063731159415026  0.6117798612868716  0.2350362392699344
  0.6095790820475900  0.8612688613801194  0.9888149720898506
  0.1061132231506171  0.9857758439749745  0.3593946169264475
  0.1086816437825541  0.2387045889696258  0.1089526592612809
  0.9824747672307836  0.4892363678611990  0.2352282645906379
  0.6080582376085524  0.3640441893468471  0.9886821989876460
  0.4850604997364264  0.4882948454758252  0.2352985441790614
  0.7343727920106958  0.3654378828801539  0.1120854295435807
  0.2308548218725573  0.4939195088843437  0.7343338218578545
  0.8558765532147460  0.3634750729258023  0.4846781470263718
  0.9832521236871652  0.2395895824942442  0.2345039320204472
  0.9788134726025441  0.1099156498346221  0.6104867426173476
  0.8596432966438078  0.4847300756482965  0.8582083356242569
  0.6037192324546993  0.6127717560952929  0.7292631968042140
  0.1159471693135311  0.3582488959466615  0.4905801235524250
  0.2310899153307808  0.1171042589071667  0.3565965504678290
  0.9863678942485977  0.4867717599809456  0.7325511042261345
  0.8599131041348262  0.9852801654739227  0.3560793299021829
  0.7359701380419370  0.1147930292824620  0.3561338620043728
  0.9847813683064928  0.4886699534711450  0.9856343186924917
  0.2310525613140752  0.9853086671516172  0.2372031187318255
  0.8593457593406384  0.7344093785259915  0.1106004191748509
  0.2310501502271268  0.8581579282988817  0.1157499579769598
  0.6103671408890984  0.6111835970565231  0.4856279577247970
  0.2311207428821558  0.3620928957528486  0.1145059951772301
  0.3604362219420207  0.6129893484633916  0.9863907566049953
  0.8579898236749729  0.2411481715516934  0.1093827344916861
  0.9871403982961666  0.2341963354191677  0.7396049699946984
  0.3591860754786931  0.2367184576680921  0.3586614068341595
  0.3615989851049028  0.1160556462921524  0.2351681304794855
  0.6134865049216014  0.9865916285819770  0.6105776114306232
  0.1085816730569248  0.8621809365374816  0.4855602680614733
  0.4865883143487452  0.6120153122667419  0.1107641558212098
  0.7340494626015805  0.8611847133214703  0.1121627694008002
  0.9765899627916296  0.8562247308290919  0.8630006502671279
  0.8571064616136745  0.8577035132171974  0.7337818317524202
  0.1065199663756855  0.7341355276811737  0.1124597122740948
  0.6140841600507276  0.1086617100173735  0.7342031216232185
  0.4809695278652928  0.9926535196105092  0.9865795760267804
  0.3601026067304430  0.8613214445833124  0.2420146142724886
  0.2335187275797702  0.7375054700013622  0.2359135479999516
  0.1078936582161653  0.7387958280820045  0.6086153936908458
  0.2310678911874711  0.7432485894210855  0.7366365971983004
  0.9825584496185419  0.1093381645917809  0.8634277077028423
  0.3540407652195717  0.8650415364163498  0.7361106257947519
  0.6086273708234328  0.7353416373624398  0.3642767005259995
  0.3552144431293272  0.7374324102698760  0.8596048278046552
  0.6108154486718256  0.1129292465632526  0.9866718665937776
  0.3597067057898529  0.6106100521719986  0.2348142313859839
  0.3570817465766345  0.8623037903865695  0.9875583376085914
  0.3592896651760095  0.7388333543981953  0.3593091883916169
  0.9801593700006948  0.3626833961842926  0.3556177469559681
  0.4884031570309085  0.3610673306604055  0.1141006544268510
  0.1068232878664306  0.3629431491351179  0.9824129863288704
  0.1107071392208899  0.4879123699628840  0.6108957741571738
  0.4823625275720699  0.4926189824776603  0.7313022522137023
  0.2344380252623998  0.3586027665320888  0.3606151719838894
  0.1073739790451583  0.7332214639989701  0.8630351435789149
  0.8588797808698345  0.3621397706693618  0.7327236667280466
  0.6111686097874719  0.3670300714165815  0.2355744823317810
  0.9854229970736078  0.9824599375316535  0.2335339766785860
  0.9880253493256224  0.3582523812176799  0.6160425112682508
  0.2302582731640129  0.7393572636979001  0.4842178964394547
  0.6085810876520714  0.4885312918797435  0.6069444375671402
  0.8541069001492997  0.2403725242683558  0.3572760823495871
  0.0917694682487719  0.9827097518335296  0.6132920031725493
  0.4829665549717695  0.7374498253041045  0.9905876066132820
  0.1014977111288857  0.9762543043595177  0.8629994719461975
  0.2322116322628345  0.6151551265575991  0.8589496436028579
  0.8602112672841290  0.2360299002402748  0.8622415633899931
  0.7315972668561831  0.7353014508931638  0.9877438965732569
  0.8587714157841390  0.3613772889668688  0.9836598504613500
  0.7306662213597375  0.8627658308345042  0.8637913739198079
  0.2333954054956452  0.9790625295670262  0.9967379459184349
  0.9757323956279687  0.8596565890842350  0.6074695293096298
  0.6090426828964578  0.4869929705063833  0.8572206104819483
  0.6118345706809293  0.4876740904636011  0.3606713728290953
  0.2348306360747637  0.4854027572178184  0.2331010908382666
  0.4852734225519700  0.9869581420766101  0.2371940162543934
  0.2337677895360239  0.2396962099316390  0.2346794907552314
  0.2114249856176683  0.9659396987331473  0.7322278965955986
  0.6130421195702378  0.1154287365545952  0.4834233273433061
  0.4882993753884923  0.1167356574182716  0.1173526701683494
  0.9834351343578580  0.9839742039310331  0.9885446049647683
  0.6101135119087926  0.3637720134918477  0.7292386969129372
  0.1074291096768594  0.7360976200578363  0.3597295477975040
  0.6087274839322010  0.6119059736572229  0.9868204093336569
  0.1091501351553562  0.6117046183546448  0.4867487957371100
  0.2326195114410857  0.1129916622724317  0.1175030460764769
  0.4855242012934578  0.8613196497195931  0.1107428207115107
  0.1067909229938837  0.9841051989997395  0.1150527605792730
  0.3595882506414614  0.9826145704641328  0.1175970946932142
  0.1038266843189083  0.8589416446169940  0.9890210727451156
  0.8560526405266020  0.8584780257136526  0.9861526603291021
  0.7330363700368748  0.4909324933833831  0.7348759067923851
  0.9861233357251928  0.3613099668763958  0.8582416437999418
  0.7377114016967323  0.9837924946069608  0.7387533406346769
  0.0935766108264857  0.8521595184542495  0.7378262122287421
  0.4878462789169413  0.6165166330809017  0.8639621427390523
